
[TITLE]
;;Project Title/Notes
Example 2 of Extran Manual -
Tide Gate

[OPTIONS]
;;Option               Value
FLOW_UNITS           CFS
INFILTRATION         HORTON
FLOW_ROUTING         DYNWAVE
LINK_OFFSETS         DEPTH
MIN_SLOPE            0
ALLOW_PONDING        NO
SKIP_STEADY_STATE    NO

IGNORE_RAINFALL      NO
IGNORE_SNOWMELT      NO
IGNORE_GROUNDWATER   NO
IGNORE_RDII          NO
IGNORE_ROUTING       NO
IGNORE_QUALITY       NO

START_DATE           01/01/2002
START_TIME           00:00:00
REPORT_START_DATE    01/01/2002
REPORT_START_TIME    00:00:00
END_DATE             01/01/2002
END_TIME             08:00:00
SWEEP_START          1/1
SWEEP_END            1/1
DRY_DAYS             0
REPORT_STEP          0:15:00
WET_STEP             0:15:00
DRY_STEP             1:00:00
ROUTING_STEP         0:00:20
RULE_STEP            0:00:00

INERTIAL_DAMPING     NONE
NORMAL_FLOW_LIMITED  BOTH
FORCE_MAIN_EQUATION  H-W
SURCHARGE_METHOD     EXTRAN
VARIABLE_STEP        0.00
LENGTHENING_STEP     0
MIN_SURFAREA         0
MAX_TRIALS           8
HEAD_TOLERANCE       0.005
SYS_FLOW_TOL         5
LAT_FLOW_TOL         5
MINIMUM_STEP         0.5
THREADS              1

[EVAPORATION]
;;Type       Parameters
;;---------- ----------
CONSTANT     0.0000
DRY_ONLY     NO

[JUNCTIONS]
;;Name             Elev         MaxDepth     InitDepth    SurDepth     Aponded     
;;---------------- ------------ ------------ ------------ ------------ ------------
80408                124.6000      13.4000       0.0000       0.0000       0.0000
80608                118.3000      16.7000       0.0000       0.0000       0.0000
81009                128.2000       8.8000       0.0000       0.0000       0.0000
81309                117.5000      12.5000       0.0000       0.0000       0.0000
82309                112.3000      42.7000       0.0000       0.0000       0.0000
10309                101.6000       9.4000       0.0000       0.0000       0.0000
15009                111.5000      13.5000       0.0000       0.0000       0.0000
16009                102.0000      18.0000       0.0000       0.0000       0.0000
16109                102.8000      22.2000       0.0000       0.0000       0.0000

[OUTFALLS]
;;Name             Elev         Type         Gated   
;;---------------- ------------ ------------ --------
10208                 89.9000 FIXED        NO      94.4000

[CONDUITS]
;;Name             FromNode         ToNode           Length       Roughness    InOffset     OutOffset    InitFlow   MaxFlow   
;;---------------- ---------------- ---------------- ------------ ------------ ------------ ------------ ---------- ----------
8040             80408            80608               1800.0000     0.015000       0.0000       0.0000     0.0000     0.0000
8060             80608            82309               2075.0000     0.015000       0.0000       2.2000     0.0000     0.0000
8100             81009            81309               5100.0000     0.015000       0.0000       0.0000     0.0000     0.0000
8130             81309            15009               3500.0000     0.015000       0.0000       0.0000     0.0000     0.0000
1030             10309            10208               4500.0000     0.016000       0.0000       0.0000     0.0000     0.0000
1570             15009            16009               5000.0000     0.015400       0.0000       0.0000     0.0000     0.0000
1600             16109            16009                500.0000     0.015000       0.0000       0.0000     0.0000     0.0000
1630             16009            10309                300.0000     0.015000       0.0000       0.0000     0.0000     0.0000
1602             82309            16109               5000.0000     0.034000       0.0000       0.0000     0.0000     0.0000

[XSECTIONS]
;;Link             Shape            Geom1        Geom2        Geom3        Geom4        Barrels 
;;---------------- ---------------- ------------ ------------ ------------ ------------ --------
8040             CIRCULAR               4.0000       0.0000       0.0000       0.0000        1
8060             CIRCULAR               4.0000       0.0000       0.0000       0.0000        1
8100             CIRCULAR               4.5000       0.0000       0.0000       0.0000        1
8130             CIRCULAR               4.5000       0.0000       0.0000       0.0000        1
1030             TRAPEZOIDAL            9.0000       0.0000       3.0000       3.0000        1
1570             CIRCULAR               5.5000       0.0000       0.0000       0.0000        1
1600             CIRCULAR               6.0000       0.0000       0.0000       0.0000        1
1630             TRAPEZOIDAL            9.0000       0.0000       3.0000       3.0000        1
1602             CIRCULAR               5.0000       0.0000       0.0000       0.0000        1

[REPORT]
;;Keyword          Value
DISABLED             NO
INPUT                NO
CONTINUITY           YES
FLOWSTATS            YES
CONTROLS             NO
AVERAGES             NO
SUBCATCHMENTS        ALL
NODES                ALL
LINKS                ALL

[INFLOWS]
;;Node             Constituent      TimeSeries       Type             Mfactor    Sfactor    Baseline   Pattern         
;;---------------- ---------------- ---------------- ---------------- ---------- ---------- ---------- ----------------
80408            FLOW             80408            FLOW                 1.0000     1.0000     0.0000                 
81009            FLOW             81009            FLOW                 1.0000     1.0000     0.0000                 
82309            FLOW             82309            FLOW                 1.0000     1.0000     0.0000                 

[TIMESERIES]
;;Name             Date/Time            Value       
;;---------------- -------------------- ------------
82309            0:00     0.000000
82309            0:15    40.000000
82309            3:00    40.000000
82309            3:15     0.000000
82309            12:00     0.000000
80408            0:00     0.000000
80408            0:15    45.000000
80408            3:00    45.000000
80408            3:15     0.000000
80408            12:00     0.000000
81009            0:00     0.000000
81009            0:15    50.000000
81009            3:00    50.000000
81009            3:15     0.000000
81009            12:00     0.000000

[MAP]
DIMENSIONS 0.0000             0.0000             10000.0000         10000.0000        
Units      NONE

[COORDINATES]
;;Node           X-Coord            Y-Coord           
;;-------------- ------------------ ------------------
80408            10115.7900         7536.8400         
80608            7463.1600          7536.8400         
81009            9989.4700          2421.0500         
81309            7568.4200          2421.0500         
82309            4957.8900          7536.8400         
10309            389.4700           2421.0500         
15009            4978.9500          2421.0500         
16009            2494.7400          2421.0500         
16109            2494.7400          7536.8400         
10208            -578.9500          4947.3700         
