
[TITLE]
;;Project Title/Notes
Example User4

[OPTIONS]
;;Option               Value
FLOW_UNITS           CFS
INFILTRATION         HORTON
FLOW_ROUTING         DYNWAVE
LINK_OFFSETS         DEPTH
MIN_SLOPE            0
ALLOW_PONDING        NO
SKIP_STEADY_STATE    NO

IGNORE_RAINFALL      NO
IGNORE_SNOWMELT      NO
IGNORE_GROUNDWATER   NO
IGNORE_RDII          NO
IGNORE_ROUTING       NO
IGNORE_QUALITY       NO

START_DATE           05/08/2002
START_TIME           00:00:00
REPORT_START_DATE    05/08/2002
REPORT_START_TIME    00:00:00
END_DATE             05/09/2002
END_TIME             00:00:00
SWEEP_START          1/1
SWEEP_END            1/1
DRY_DAYS             0
REPORT_STEP          0:05:00
WET_STEP             0:15:00
DRY_STEP             0:15:00
ROUTING_STEP         0:00:05
RULE_STEP            0:00:00

INERTIAL_DAMPING     NONE
NORMAL_FLOW_LIMITED  BOTH
FORCE_MAIN_EQUATION  H-W
SURCHARGE_METHOD     EXTRAN
VARIABLE_STEP        0.00
LENGTHENING_STEP     5
MIN_SURFAREA         12.556
MAX_TRIALS           8
HEAD_TOLERANCE       0.005
SYS_FLOW_TOL         5
LAT_FLOW_TOL         5
MINIMUM_STEP         0.5
THREADS              1

[EVAPORATION]
;;Type       Parameters
;;---------- ----------
CONSTANT     0.1000
DRY_ONLY     NO

[RAINGAGES]
;;Name             Format       Intvl    SCF      Source          
;;---------------- ------------ -------- -------- ----------------
GAGE1            VOLUME       0:05     1.00     TIMESERIES RainSeries1

[SUBCATCHMENTS]
;;Name             RainGage         Outlet           Area         %%Imperv   Width        %%Slope    CurbLen   
;;---------------- ---------------- ---------------- ------------ ---------- ------------ ---------- ----------
GMMC19CC0001     GAGE1            23811028              17.8800      35.04     287.5100     2.5000     0.0000
GMMC19CC0002     GAGE1            23708027               2.5500      44.57     135.5100     1.6000     0.0000
GMMC19CC0003     GAGE1            23708023               4.8300      57.89     110.7700     1.2000     0.0000
GMMC19CC0004     GAGE1            23707008               6.5600      22.35     150.9700     2.4000     0.0000
GMMC19CC0005     GAGE1            23707011               5.8200      23.55     115.6100     1.4000     0.0000
GMMC19CC0006     GAGE1            23707015              10.6800      35.28     223.4900     1.5000     0.0000
GMMC19CC0007     GAGE1            23702032              31.3300      41.94     286.8900     1.5000     0.0000
GMMC19CC0008     GAGE1            23707014               1.8400      26.62     109.6700     3.0000     0.0000
GMMC19CC0009     GAGE1            23702039               7.9800      30.74     156.3000     3.6000     0.0000
GMMC19CC0010     GAGE1            23707007               1.7100      27.40     199.4700     3.2000     0.0000
GMMC19CC0011     GAGE1            23707007               0.5800      27.43      34.9900     4.1000     0.0000
GMMC19CC0012     GAGE1            23707003               1.3500      21.13      64.7300     1.5000     0.0000
GMMC19CC0013     GAGE1            23707005               3.0600      29.33      89.4900     2.0000     0.0000
GMMC19CC0014     GAGE1            23702037               1.7400      47.00      68.3300     3.2000     0.0000
GMMC19CC0015     GAGE1            23702036               0.9200      33.63     146.4700    14.7000     0.0000
GMMC19CC0016     GAGE1            23701029              15.2400      41.08     262.1500     1.1000     0.0000
GMMC19CC0017     GAGE1            23701011               1.6400      84.95     112.9200     2.2000     0.0000
GMMC19CC0018     GAGE1            23701016               2.9200      38.67      87.0400     3.7000     0.0000
GMMC19CC0019     GAGE1            23701023               2.4400      45.06     116.7900     3.3000     0.0000
GMMC19CC0020     GAGE1            23701008               1.2800      42.45     132.0000     1.8000     0.0000
GMMC19CC0021     GAGE1            23701035               6.3800      26.48     113.8600     2.1000     0.0000
GMMC19CC0022     GAGE1            23701019               0.6300      48.08     125.7600     2.7000     0.0000
GMMC19CC0023     GAGE1            23701001               2.4900      26.88    1146.7500     1.0000     0.0000
GMMC19CC0024     GAGE1            23701034               8.7300      25.47     197.9200     3.0000     0.0000
GMMC19CC0025     GAGE1            20713008               8.8200      25.54     185.3300     4.4000     0.0000
GMMC19CC0026     GAGE1            23816037               4.0900      24.05     265.3300     1.0000     0.0000
GMMC19CC0027     GAGE1            23816006               7.8000      24.64     157.3500     4.6000     0.0000
GMMC19CC0028     GAGE1            23809053               4.3700      37.51      94.7600     4.5000     0.0000
GMMC19CC0029     GAGE1            23809015               6.9200      23.24     132.0600     5.2000     0.0000
GMMC19CC0030     GAGE1            23809019               1.3600      27.35      55.3500     1.0000     0.0000
GMMC19CC0031     GAGE1            23809014              12.2000      40.95     183.3100     3.6000     0.0000
GMMC19CC0032     GAGE1            23809004               1.3700      42.91     132.6500     1.2000     0.0000
GMMC19CC0033     GAGE1            23809005               1.1700      55.64      79.5600     3.1000     0.0000
GMMC19CC0034     GAGE1            23809049               3.1100      22.98     109.5100     3.2000     0.0000
GMMC19CC0035     GAGE1            23808016               3.2100      26.58      93.2800     1.7000     0.0000
GMMC19CC0036     GAGE1            23701017               2.5200      53.05      85.3700     0.6000     0.0000
GMMC19CC0037     GAGE1            23702015              11.6900      77.24     164.3600     3.0000     0.0000
GMMC19CC0038     GAGE1            23815017               9.9000      50.49     150.5300     3.7000     0.0000
GMMC19CC0039     GAGE1            23815016               3.3300      54.03      87.4700     2.7000     0.0000
GMMC19CC0040     GAGE1            23815015               2.6500      37.71     205.4200     0.9000     0.0000
GMMC19CC0041     GAGE1            23815005               2.8100      33.67     115.9500     2.1000     0.0000
GMMC19CC0042     GAGE1            23815004               1.0800      29.02     107.0000     0.7000     0.0000
GMMC19CC0043     GAGE1            23815003               2.1700      34.17     126.0300     0.8000     0.0000
GMMC19CC0044     GAGE1            23815002               2.6700      39.97     170.3900     3.6000     0.0000
GMMC19CC0045     GAGE1            23815014               2.1500      38.64     255.5600     0.9000     0.0000
GMMC19CC0046     GAGE1            23809028              15.4600      36.12     179.6800     1.8000     0.0000
GMMC19CC0047     GAGE1            23809027               3.9100      79.94     165.7100     3.2000     0.0000
GMMC19CC0048     GAGE1            23814006              11.4700      36.80     248.2400     0.9000     0.0000
GMMC19CC0049     GAGE1            23811029              11.0500      50.73     193.6500     3.2000     0.0000
GMMC19CC0050     GAGE1            23814009               4.8900      65.32     153.1200     1.7000     0.0000
GMMC19CC0051     GAGE1            23811028               1.6500      60.59      92.8200     5.1000     0.0000
GMMC19CC0052     GAGE1            23815025               2.0000      58.52      98.7200     2.0000     0.0000
GMMC19CC0053     GAGE1            23810026               3.6500      44.59     123.0600     4.9000     0.0000
GMMC19CC0054     GAGE1            23815030               1.1300      56.17     122.3700     2.1000     0.0000
GMMC19CC0055     GAGE1            23815032               9.1400      43.05     158.2900     4.0000     0.0000
GMMC19CC0056     GAGE1            23815024               1.9000      83.69      83.0700     0.8000     0.0000
GMMC19CC0057     GAGE1            23815023               0.9300      81.77      94.8500     0.9000     0.0000
GMMC19CC0058     GAGE1            23815021               3.1300      38.84     103.0000     1.1000     0.0000
GMMC19CC0059     GAGE1            23815009               1.5500      44.44      70.6400     2.4000     0.0000
GMMC19CC0060     GAGE1            23810012               1.2100      33.02     100.3700     0.9000     0.0000
GMMC19CC0061     GAGE1            23810011               2.0400      31.23     176.5800     0.9000     0.0000
GMMC19CC0062     GAGE1            23810019               6.1200      31.34     131.5800     5.0000     0.0000
GMMC19CC0063     GAGE1            23811004              14.2500      56.32     275.2700     2.0000     0.0000
GMMC19CC0064     GAGE1            23811003               2.7300      48.28     128.8900     3.8000     0.0000
GMMC19CC0065     GAGE1            23810016               4.0500      37.17     182.9000     2.0000     0.0000
GMMC19CC0066     GAGE1            23810014               1.5000      21.55     204.5900     1.0000     0.0000
GMMC19CC0067     GAGE1            23810010               9.5700      36.77     174.3000     3.1000     0.0000
GMMC19CC0068     GAGE1            23810009               5.3900      70.89     236.7200     0.6000     0.0000
GMMC19CC0069     GAGE1            23807013               8.8300      22.13     200.3300     1.0000     0.0000
GMMC19CC0070     GAGE1            23802012               6.3700      22.33     158.8100     3.2000     0.0000
GMMC19CC0071     GAGE1            23807017               1.8200      26.07     189.0100     2.8000     0.0000
GMMC19CC0072     GAGE1            23807018               2.8200      21.00      73.4400     3.3000     0.0000
GMMC19CC0073     GAGE1            23807020               2.8300      22.09     263.0300     6.0000     0.0000
GMMC19CC0074     GAGE1            23807031               3.8100      21.04      75.6600     1.0000     0.0000
GMMC19CC0075     GAGE1            23809026               0.8100      60.96      86.8400     3.2000     0.0000
GMMC19CC0076     GAGE1            23808025               3.7800      34.13     390.4500     3.1000     0.0000
GMMC19CC0077     GAGE1            23808024               1.9500      27.71     146.7500     1.1000     0.0000
GMMC19CC0078     GAGE1            23808022              14.5200      37.33     161.9800     2.7000     0.0000
GMMC19CC0079     GAGE1            23808005              10.7500      33.80     145.5700     2.6000     0.0000
GMMC19CC0080     GAGE1            23801007               3.7600      36.94     250.2300     4.3000     0.0000
GMMC19CC0081     GAGE1            23801009               7.5700      34.79     157.2100     3.6000     0.0000
GMMC19CC0082     GAGE1            23807028               4.4900      27.71     144.2300     1.0000     0.0000
GMMC19CC0083     GAGE1            23807004               3.8000      25.09     104.0500     2.5000     0.0000
GMMC19CC0084     GAGE1            23808032               1.5900      32.41      59.5800     0.5000     0.0000
GMMC19CC0085     GAGE1            23801028               5.4800      23.01     744.3900     2.3000     0.0000
GMMC19CC0086     GAGE1            23808019               4.9200      29.56     159.6200     1.6000     0.0000
GMMC19CC0087     GAGE1            23801020               6.2400      41.81     142.4400     2.1000     0.0000
GMMC19CC0088     GAGE1            23801025               3.6200      21.04     144.8200     5.0000     0.0000
GMMC19CC0089     GAGE1            23801014               3.6800      29.23      92.4400     3.1000     0.0000
GMMC19CC0090     GAGE1            23801026               0.1300      21.00      51.2400     0.5000     0.0000
GMMC19CC0091     GAGE1            23801011               2.9400      33.53     113.4100     3.4000     0.0000
GMMC19CC0092     GAGE1            23801013               0.9000      21.36      72.1800     0.6000     0.0000
GMMC19CC0093     GAGE1            23801032               4.3300      38.49     232.3000     0.6000     0.0000
GMMC19CC0094     GAGE1            23801001              11.2900      50.19     201.1500     1.0000     0.0000
GMMC19CC0095     GAGE1            23916027               4.7100      34.51     119.5800     4.2000     0.0000
GMMC19CC0096     GAGE1            23801003               1.2600      50.12     135.1000     0.6000     0.0000
GMMC19CC0097     GAGE1            23916026               1.2500      50.28      91.7400     0.6000     0.0000
GMMC19CC0098     GAGE1            23916014               6.3300      33.08     114.7200     3.9000     0.0000
GMMC19CC0099     GAGE1            23916017               3.7700      22.11     112.8700     3.2000     0.0000
GMMC19CC0100     GAGE1            23916015               1.5700      45.98      88.8300     1.8000     0.0000
GMMC19CC0101     GAGE1            23916003               1.1700      30.12      47.8800     3.0000     0.0000
GMMC19CC0102     GAGE1            23916007              10.9200      43.40     317.3000     4.0000     0.0000
GMMC19CC0103     GAGE1            20712009               1.4300      50.15     119.2300     6.0000     0.0000
GMMC19CC0104     GAGE1            20712010               1.3200      45.47      54.1500     4.0000     0.0000
GMMC19CC0105     GAGE1            23808013               0.7300      29.93     118.8700     1.0000     0.0000
GMMC19CC0106     GAGE1            23808030               1.1600      35.32      55.6200     1.0000     0.0000
GMMC19CC0107     GAGE1            20712011               1.2400      31.99     127.2400     1.7000     0.0000
GMMC19CC0108     GAGE1            23809003               1.4300      45.96     160.5700     1.3000     0.0000
GMMC19CC0109     GAGE1            23702027               5.3100      49.54     138.3700     5.7000     0.0000
GMMC19CC0110     GAGE1            23703003               1.6000      33.84     101.2100     5.0000     0.0000
GMMC19CC0111     GAGE1            20704016               1.8300      38.54      82.2600     2.9000     0.0000
GMMC19CC0112     GAGE1            23916025               3.6200      32.47     100.5500     4.5000     0.0000

[SUBAREAS]
;;Subcatch         N-Imperv   N-Perv     S-Imperv   S-Perv     %%ZeroImp  RouteTo  PctRouted 
;;---------------- ---------- ---------- ---------- ---------- ---------- -------- ----------
GMMC19CC0001         0.0150     0.2500     0.1000     0.2000      25.00 OUTLET         0.00
GMMC19CC0002         0.0150     0.2500     0.1000     0.2000      25.00 OUTLET         0.00
GMMC19CC0003         0.0150     0.2500     0.1000     0.2000      25.00 OUTLET         0.00
GMMC19CC0004         0.0150     0.2500     0.1000     0.2000      25.00 OUTLET         0.00
GMMC19CC0005         0.0150     0.2500     0.1000     0.2000      25.00 OUTLET         0.00
GMMC19CC0006         0.0150     0.2500     0.1000     0.2000      25.00 OUTLET         0.00
GMMC19CC0007         0.0150     0.2500     0.1000     0.2000      25.00 OUTLET         0.00
GMMC19CC0008         0.0150     0.2500     0.1000     0.2000      25.00 OUTLET         0.00
GMMC19CC0009         0.0150     0.2500     0.1000     0.2000      25.00 OUTLET         0.00
GMMC19CC0010         0.0150     0.2500     0.1000     0.2000      25.00 OUTLET         0.00
GMMC19CC0011         0.0150     0.2500     0.1000     0.2000      25.00 OUTLET         0.00
GMMC19CC0012         0.0150     0.2500     0.1000     0.2000      25.00 OUTLET         0.00
GMMC19CC0013         0.0150     0.2500     0.1000     0.2000      25.00 OUTLET         0.00
GMMC19CC0014         0.0150     0.2500     0.1000     0.2000      25.00 OUTLET         0.00
GMMC19CC0015         0.0150     0.2500     0.1000     0.2000      25.00 OUTLET         0.00
GMMC19CC0016         0.0150     0.2500     0.1000     0.2000      25.00 OUTLET         0.00
GMMC19CC0017         0.0150     0.2500     0.1000     0.2000      25.00 OUTLET         0.00
GMMC19CC0018         0.0150     0.2500     0.1000     0.2000      25.00 OUTLET         0.00
GMMC19CC0019         0.0150     0.2500     0.1000     0.2000      25.00 OUTLET         0.00
GMMC19CC0020         0.0150     0.2500     0.1000     0.2000      25.00 OUTLET         0.00
GMMC19CC0021         0.0150     0.2500     0.1000     0.2000      25.00 OUTLET         0.00
GMMC19CC0022         0.0150     0.2500     0.1000     0.2000      25.00 OUTLET         0.00
GMMC19CC0023         0.0150     0.2500     0.1000     0.2000      25.00 OUTLET         0.00
GMMC19CC0024         0.0150     0.2500     0.1000     0.2000      25.00 OUTLET         0.00
GMMC19CC0025         0.0150     0.2500     0.1000     0.2000      25.00 OUTLET         0.00
GMMC19CC0026         0.0150     0.2500     0.1000     0.2000      25.00 OUTLET         0.00
GMMC19CC0027         0.0150     0.2500     0.1000     0.2000      25.00 OUTLET         0.00
GMMC19CC0028         0.0150     0.2500     0.1000     0.2000      25.00 OUTLET         0.00
GMMC19CC0029         0.0150     0.2500     0.1000     0.2000      25.00 OUTLET         0.00
GMMC19CC0030         0.0150     0.2500     0.1000     0.2000      25.00 OUTLET         0.00
GMMC19CC0031         0.0150     0.2500     0.1000     0.2000      25.00 OUTLET         0.00
GMMC19CC0032         0.0150     0.2500     0.1000     0.2000      25.00 OUTLET         0.00
GMMC19CC0033         0.0150     0.2500     0.1000     0.2000      25.00 OUTLET         0.00
GMMC19CC0034         0.0150     0.2500     0.1000     0.2000      25.00 OUTLET         0.00
GMMC19CC0035         0.0150     0.2500     0.1000     0.2000      25.00 OUTLET         0.00
GMMC19CC0036         0.0150     0.2500     0.1000     0.2000      25.00 OUTLET         0.00
GMMC19CC0037         0.0150     0.2500     0.1000     0.2000      25.00 OUTLET         0.00
GMMC19CC0038         0.0150     0.2500     0.1000     0.2000      25.00 OUTLET         0.00
GMMC19CC0039         0.0150     0.2500     0.1000     0.2000      25.00 OUTLET         0.00
GMMC19CC0040         0.0150     0.2500     0.1000     0.2000      25.00 OUTLET         0.00
GMMC19CC0041         0.0150     0.2500     0.1000     0.2000      25.00 OUTLET         0.00
GMMC19CC0042         0.0150     0.2500     0.1000     0.2000      25.00 OUTLET         0.00
GMMC19CC0043         0.0150     0.2500     0.1000     0.2000      25.00 OUTLET         0.00
GMMC19CC0044         0.0150     0.2500     0.1000     0.2000      25.00 OUTLET         0.00
GMMC19CC0045         0.0150     0.2500     0.1000     0.2000      25.00 OUTLET         0.00
GMMC19CC0046         0.0150     0.2500     0.1000     0.2000      25.00 OUTLET         0.00
GMMC19CC0047         0.0150     0.2500     0.1000     0.2000      25.00 OUTLET         0.00
GMMC19CC0048         0.0150     0.2500     0.1000     0.2000      25.00 OUTLET         0.00
GMMC19CC0049         0.0150     0.2500     0.1000     0.2000      25.00 OUTLET         0.00
GMMC19CC0050         0.0150     0.2500     0.1000     0.2000      25.00 OUTLET         0.00
GMMC19CC0051         0.0150     0.2500     0.1000     0.2000      25.00 OUTLET         0.00
GMMC19CC0052         0.0150     0.2500     0.1000     0.2000      25.00 OUTLET         0.00
GMMC19CC0053         0.0150     0.2500     0.1000     0.2000      25.00 OUTLET         0.00
GMMC19CC0054         0.0150     0.2500     0.1000     0.2000      25.00 OUTLET         0.00
GMMC19CC0055         0.0150     0.2500     0.1000     0.2000      25.00 OUTLET         0.00
GMMC19CC0056         0.0150     0.2500     0.1000     0.2000      25.00 OUTLET         0.00
GMMC19CC0057         0.0150     0.2500     0.1000     0.2000      25.00 OUTLET         0.00
GMMC19CC0058         0.0150     0.2500     0.1000     0.2000      25.00 OUTLET         0.00
GMMC19CC0059         0.0150     0.2500     0.1000     0.2000      25.00 OUTLET         0.00
GMMC19CC0060         0.0150     0.2500     0.1000     0.2000      25.00 OUTLET         0.00
GMMC19CC0061         0.0150     0.2500     0.1000     0.2000      25.00 OUTLET         0.00
GMMC19CC0062         0.0150     0.2500     0.1000     0.2000      25.00 OUTLET         0.00
GMMC19CC0063         0.0150     0.2500     0.1000     0.2000      25.00 OUTLET         0.00
GMMC19CC0064         0.0150     0.2500     0.1000     0.2000      25.00 OUTLET         0.00
GMMC19CC0065         0.0150     0.2500     0.1000     0.2000      25.00 OUTLET         0.00
GMMC19CC0066         0.0150     0.2500     0.1000     0.2000      25.00 OUTLET         0.00
GMMC19CC0067         0.0150     0.2500     0.1000     0.2000      25.00 OUTLET         0.00
GMMC19CC0068         0.0150     0.2500     0.1000     0.2000      25.00 OUTLET         0.00
GMMC19CC0069         0.0150     0.2500     0.1000     0.2000      25.00 OUTLET         0.00
GMMC19CC0070         0.0150     0.2500     0.1000     0.2000      25.00 OUTLET         0.00
GMMC19CC0071         0.0150     0.2500     0.1000     0.2000      25.00 OUTLET         0.00
GMMC19CC0072         0.0150     0.2500     0.1000     0.2000      25.00 OUTLET         0.00
GMMC19CC0073         0.0150     0.2500     0.1000     0.2000      25.00 OUTLET         0.00
GMMC19CC0074         0.0150     0.2500     0.1000     0.2000      25.00 OUTLET         0.00
GMMC19CC0075         0.0150     0.2500     0.1000     0.2000      25.00 OUTLET         0.00
GMMC19CC0076         0.0150     0.2500     0.1000     0.2000      25.00 OUTLET         0.00
GMMC19CC0077         0.0150     0.2500     0.1000     0.2000      25.00 OUTLET         0.00
GMMC19CC0078         0.0150     0.2500     0.1000     0.2000      25.00 OUTLET         0.00
GMMC19CC0079         0.0150     0.2500     0.1000     0.2000      25.00 OUTLET         0.00
GMMC19CC0080         0.0150     0.2500     0.1000     0.2000      25.00 OUTLET         0.00
GMMC19CC0081         0.0150     0.2500     0.1000     0.2000      25.00 OUTLET         0.00
GMMC19CC0082         0.0150     0.2500     0.1000     0.2000      25.00 OUTLET         0.00
GMMC19CC0083         0.0150     0.2500     0.1000     0.2000      25.00 OUTLET         0.00
GMMC19CC0084         0.0150     0.2500     0.1000     0.2000      25.00 OUTLET         0.00
GMMC19CC0085         0.0150     0.2500     0.1000     0.2000      25.00 OUTLET         0.00
GMMC19CC0086         0.0150     0.2500     0.1000     0.2000      25.00 OUTLET         0.00
GMMC19CC0087         0.0150     0.2500     0.1000     0.2000      25.00 OUTLET         0.00
GMMC19CC0088         0.0150     0.2500     0.1000     0.2000      25.00 OUTLET         0.00
GMMC19CC0089         0.0150     0.2500     0.1000     0.2000      25.00 OUTLET         0.00
GMMC19CC0090         0.0150     0.2500     0.1000     0.2000      25.00 OUTLET         0.00
GMMC19CC0091         0.0150     0.2500     0.1000     0.2000      25.00 OUTLET         0.00
GMMC19CC0092         0.0150     0.2500     0.1000     0.2000      25.00 OUTLET         0.00
GMMC19CC0093         0.0150     0.2500     0.1000     0.2000      25.00 OUTLET         0.00
GMMC19CC0094         0.0150     0.2500     0.1000     0.2000      25.00 OUTLET         0.00
GMMC19CC0095         0.0150     0.2500     0.1000     0.2000      25.00 OUTLET         0.00
GMMC19CC0096         0.0150     0.2500     0.1000     0.2000      25.00 OUTLET         0.00
GMMC19CC0097         0.0150     0.2500     0.1000     0.2000      25.00 OUTLET         0.00
GMMC19CC0098         0.0150     0.2500     0.1000     0.2000      25.00 OUTLET         0.00
GMMC19CC0099         0.0150     0.2500     0.1000     0.2000      25.00 OUTLET         0.00
GMMC19CC0100         0.0150     0.2500     0.1000     0.2000      25.00 OUTLET         0.00
GMMC19CC0101         0.0150     0.2500     0.1000     0.2000      25.00 OUTLET         0.00
GMMC19CC0102         0.0150     0.2500     0.1000     0.2000      25.00 OUTLET         0.00
GMMC19CC0103         0.0150     0.2500     0.1000     0.2000      25.00 OUTLET         0.00
GMMC19CC0104         0.0150     0.2500     0.1000     0.2000      25.00 OUTLET         0.00
GMMC19CC0105         0.0150     0.2500     0.1000     0.2000      25.00 OUTLET         0.00
GMMC19CC0106         0.0150     0.2500     0.1000     0.2000      25.00 OUTLET         0.00
GMMC19CC0107         0.0150     0.2500     0.1000     0.2000      25.00 OUTLET         0.00
GMMC19CC0108         0.0150     0.2500     0.1000     0.2000      25.00 OUTLET         0.00
GMMC19CC0109         0.0150     0.2500     0.1000     0.2000      25.00 OUTLET         0.00
GMMC19CC0110         0.0150     0.2500     0.1000     0.2000      25.00 OUTLET         0.00
GMMC19CC0111         0.0150     0.2500     0.1000     0.2000      25.00 OUTLET         0.00
GMMC19CC0112         0.0150     0.2500     0.1000     0.2000      25.00 OUTLET         0.00

[INFILTRATION]
;;Subcatch         Param1     Param2     Param3     Param4     Param5    
;;---------------- ---------- ---------- ---------- ---------- ----------
GMMC19CC0001         6.0000     0.1311     2.0160     0.0413     0.0000 HORTON
GMMC19CC0002         6.0000     0.2496     2.0160     0.0413     0.0000 HORTON
GMMC19CC0003         6.0000     0.1461     2.0160     0.0413     0.0000 HORTON
GMMC19CC0004         6.0000     0.1903     2.0160     0.0413     0.0000 HORTON
GMMC19CC0005         6.0000     0.1552     2.0160     0.0413     0.0000 HORTON
GMMC19CC0006         6.0000     0.1000     2.0160     0.0413     0.0000 HORTON
GMMC19CC0007         6.0000     0.1124     2.0160     0.0413     0.0000 HORTON
GMMC19CC0008         6.0000     0.1763     2.0160     0.0413     0.0000 HORTON
GMMC19CC0009         6.0000     0.1585     2.0160     0.0413     0.0000 HORTON
GMMC19CC0010         6.0000     0.1000     2.0160     0.0413     0.0000 HORTON
GMMC19CC0011         6.0000     0.2169     2.0160     0.0413     0.0000 HORTON
GMMC19CC0012         6.0000     0.2500     2.0160     0.0413     0.0000 HORTON
GMMC19CC0013         6.0000     0.2500     2.0160     0.0413     0.0000 HORTON
GMMC19CC0014         6.0000     0.2500     2.0160     0.0413     0.0000 HORTON
GMMC19CC0015         6.0000     0.2500     2.0160     0.0413     0.0000 HORTON
GMMC19CC0016         6.0000     0.1140     2.0160     0.0413     0.0000 HORTON
GMMC19CC0017         6.0000     0.1000     2.0160     0.0413     0.0000 HORTON
GMMC19CC0018         6.0000     0.1000     2.0160     0.0413     0.0000 HORTON
GMMC19CC0019         6.0000     0.1000     2.0160     0.0413     0.0000 HORTON
GMMC19CC0020         6.0000     0.1023     2.0160     0.0413     0.0000 HORTON
GMMC19CC0021         6.0000     0.1339     2.0160     0.0413     0.0000 HORTON
GMMC19CC0022         6.0000     0.1406     2.0160     0.0413     0.0000 HORTON
GMMC19CC0023         6.0000     0.1662     2.0160     0.0413     0.0000 HORTON
GMMC19CC0024         6.0000     0.1890     2.0160     0.0413     0.0000 HORTON
GMMC19CC0025         6.0000     0.2139     2.0160     0.0413     0.0000 HORTON
GMMC19CC0026         6.0000     0.2096     2.0160     0.0413     0.0000 HORTON
GMMC19CC0027         6.0000     0.2222     2.0160     0.0413     0.0000 HORTON
GMMC19CC0028         6.0000     0.2292     2.0160     0.0413     0.0000 HORTON
GMMC19CC0029         6.0000     0.2168     2.0160     0.0413     0.0000 HORTON
GMMC19CC0030         6.0000     0.2500     2.0160     0.0413     0.0000 HORTON
GMMC19CC0031         6.0000     0.2062     2.0160     0.0413     0.0000 HORTON
GMMC19CC0032         6.0000     0.2460     2.0160     0.0413     0.0000 HORTON
GMMC19CC0033         6.0000     0.2500     2.0160     0.0413     0.0000 HORTON
GMMC19CC0034         6.0000     0.2500     2.0160     0.0413     0.0000 HORTON
GMMC19CC0035         6.0000     0.2500     2.0160     0.0413     0.0000 HORTON
GMMC19CC0036         6.0000     0.1046     2.0160     0.0413     0.0000 HORTON
GMMC19CC0037         6.0000     0.2073     2.0160     0.0413     0.0000 HORTON
GMMC19CC0038         6.0000     0.1703     2.0160     0.0413     0.0000 HORTON
GMMC19CC0039         6.0000     0.2319     2.0160     0.0413     0.0000 HORTON
GMMC19CC0040         6.0000     0.2460     2.0160     0.0413     0.0000 HORTON
GMMC19CC0041         6.0000     0.1093     2.0160     0.0413     0.0000 HORTON
GMMC19CC0042         6.0000     0.1004     2.0160     0.0413     0.0000 HORTON
GMMC19CC0043         6.0000     0.1000     2.0160     0.0413     0.0000 HORTON
GMMC19CC0044         6.0000     0.1000     2.0160     0.0413     0.0000 HORTON
GMMC19CC0045         6.0000     0.2370     2.0160     0.0413     0.0000 HORTON
GMMC19CC0046         6.0000     0.1063     2.0160     0.0413     0.0000 HORTON
GMMC19CC0047         6.0000     0.1317     2.0160     0.0413     0.0000 HORTON
GMMC19CC0048         6.0000     0.1000     2.0160     0.0413     0.0000 HORTON
GMMC19CC0049         6.0000     0.1000     2.0160     0.0413     0.0000 HORTON
GMMC19CC0050         6.0000     0.1028     2.0160     0.0413     0.0000 HORTON
GMMC19CC0051         6.0000     0.1000     2.0160     0.0413     0.0000 HORTON
GMMC19CC0052         6.0000     0.2180     2.0160     0.0413     0.0000 HORTON
GMMC19CC0053         6.0000     0.1408     2.0160     0.0413     0.0000 HORTON
GMMC19CC0054         6.0000     0.2016     2.0160     0.0413     0.0000 HORTON
GMMC19CC0055         6.0000     0.1312     2.0160     0.0413     0.0000 HORTON
GMMC19CC0056         6.0000     0.2500     2.0160     0.0413     0.0000 HORTON
GMMC19CC0057         6.0000     0.2500     2.0160     0.0413     0.0000 HORTON
GMMC19CC0058         6.0000     0.2500     2.0160     0.0413     0.0000 HORTON
GMMC19CC0059         6.0000     0.2442     2.0160     0.0413     0.0000 HORTON
GMMC19CC0060         6.0000     0.2466     2.0160     0.0413     0.0000 HORTON
GMMC19CC0061         6.0000     0.2499     2.0160     0.0413     0.0000 HORTON
GMMC19CC0062         6.0000     0.1933     2.0160     0.0413     0.0000 HORTON
GMMC19CC0063         6.0000     0.1000     2.0160     0.0413     0.0000 HORTON
GMMC19CC0064         6.0000     0.1000     2.0160     0.0413     0.0000 HORTON
GMMC19CC0065         6.0000     0.1712     2.0160     0.0413     0.0000 HORTON
GMMC19CC0066         6.0000     0.2500     2.0160     0.0413     0.0000 HORTON
GMMC19CC0067         6.0000     0.1313     2.0160     0.0413     0.0000 HORTON
GMMC19CC0068         6.0000     0.2115     2.0160     0.0413     0.0000 HORTON
GMMC19CC0069         6.0000     0.1962     2.0160     0.0413     0.0000 HORTON
GMMC19CC0070         6.0000     0.1265     2.0160     0.0413     0.0000 HORTON
GMMC19CC0071         6.0000     0.2340     2.0160     0.0413     0.0000 HORTON
GMMC19CC0072         6.0000     0.1578     2.0160     0.0413     0.0000 HORTON
GMMC19CC0073         6.0000     0.2105     2.0160     0.0413     0.0000 HORTON
GMMC19CC0074         6.0000     0.1782     2.0160     0.0413     0.0000 HORTON
GMMC19CC0075         6.0000     0.2500     2.0160     0.0413     0.0000 HORTON
GMMC19CC0076         6.0000     0.1521     2.0160     0.0413     0.0000 HORTON
GMMC19CC0077         6.0000     0.2500     2.0160     0.0413     0.0000 HORTON
GMMC19CC0078         6.0000     0.1901     2.0160     0.0413     0.0000 HORTON
GMMC19CC0079         6.0000     0.1873     2.0160     0.0413     0.0000 HORTON
GMMC19CC0080         6.0000     0.2141     2.0160     0.0413     0.0000 HORTON
GMMC19CC0081         6.0000     0.1509     2.0160     0.0413     0.0000 HORTON
GMMC19CC0082         6.0000     0.2369     2.0160     0.0413     0.0000 HORTON
GMMC19CC0083         6.0000     0.2436     2.0160     0.0413     0.0000 HORTON
GMMC19CC0084         6.0000     0.2500     2.0160     0.0413     0.0000 HORTON
GMMC19CC0085         6.0000     0.1999     2.0160     0.0413     0.0000 HORTON
GMMC19CC0086         6.0000     0.2500     2.0160     0.0413     0.0000 HORTON
GMMC19CC0087         6.0000     0.1596     2.0160     0.0413     0.0000 HORTON
GMMC19CC0088         6.0000     0.2049     2.0160     0.0413     0.0000 HORTON
GMMC19CC0089         6.0000     0.2500     2.0160     0.0413     0.0000 HORTON
GMMC19CC0090         6.0000     0.2500     2.0160     0.0413     0.0000 HORTON
GMMC19CC0091         6.0000     0.2500     2.0160     0.0413     0.0000 HORTON
GMMC19CC0092         6.0000     0.2500     2.0160     0.0413     0.0000 HORTON
GMMC19CC0093         6.0000     0.2469     2.0160     0.0413     0.0000 HORTON
GMMC19CC0094         6.0000     0.1980     2.0160     0.0413     0.0000 HORTON
GMMC19CC0095         6.0000     0.1933     2.0160     0.0413     0.0000 HORTON
GMMC19CC0096         6.0000     0.2500     2.0160     0.0413     0.0000 HORTON
GMMC19CC0097         6.0000     0.2500     2.0160     0.0413     0.0000 HORTON
GMMC19CC0098         6.0000     0.1953     2.0160     0.0413     0.0000 HORTON
GMMC19CC0099         6.0000     0.1649     2.0160     0.0413     0.0000 HORTON
GMMC19CC0100         6.0000     0.2500     2.0160     0.0413     0.0000 HORTON
GMMC19CC0101         6.0000     0.2500     2.0160     0.0413     0.0000 HORTON
GMMC19CC0102         6.0000     0.1715     2.0160     0.0413     0.0000 HORTON
GMMC19CC0103         6.0000     0.1061     2.0160     0.0413     0.0000 HORTON
GMMC19CC0104         6.0000     0.1159     2.0160     0.0413     0.0000 HORTON
GMMC19CC0105         6.0000     0.2500     2.0160     0.0413     0.0000 HORTON
GMMC19CC0106         6.0000     0.2500     2.0160     0.0413     0.0000 HORTON
GMMC19CC0107         6.0000     0.1240     2.0160     0.0413     0.0000 HORTON
GMMC19CC0108         6.0000     0.1513     2.0160     0.0413     0.0000 HORTON
GMMC19CC0109         6.0000     0.1870     2.0160     0.0413     0.0000 HORTON
GMMC19CC0110         6.0000     0.1000     2.0160     0.0413     0.0000 HORTON
GMMC19CC0111         6.0000     0.1873     2.0160     0.0413     0.0000 HORTON
GMMC19CC0112         6.0000     0.2500     2.0160     0.0413     0.0000 HORTON

[JUNCTIONS]
;;Name             Elev         MaxDepth     InitDepth    SurDepth     Aponded     
;;---------------- ------------ ------------ ------------ ------------ ------------
20704016             874.3300      10.0000       0.0000       0.0000       0.0000
20704017             870.8200      10.0000       0.0000       0.0000       0.0000
20704018             860.8900      10.0000       0.0000       0.0000       0.0000
20704025             849.6900       8.0000       0.0000       0.0000       0.0000
20712009             895.9000      10.0000       0.0000       0.0000       0.0000
20712010             882.1700       9.0000       0.0000       0.0000       0.0000
20712011             870.5600      11.0000       0.0000       0.0000       0.0000
20713008             898.5900       7.0000       0.0000       0.0000       0.0000
23701001             882.1600       3.0000       0.0000       0.0000       0.0000
23701005             888.9500       9.0000       0.0000       0.0000       0.0000
23701006             891.3600       9.0000       0.0000       0.0000       0.0000
23701007             892.4200      10.0000       0.0000       0.0000       0.0000
23701008             894.5000      10.0000       0.0000       0.0000       0.0000
23701009             897.4000      12.0000       0.0000       0.0000       0.0000
23701010             897.9200      12.0000       0.0000       0.0000       0.0000
23701011             901.9800      10.0000       0.0000       0.0000       0.0000
23701016             896.6100      10.0000       0.0000       0.0000       0.0000
23701017             894.0600      14.0000       0.0000       0.0000       0.0000
23701018             892.9400      11.0000       0.0000       0.0000       0.0000
23701019             892.1300       9.0000       0.0000       0.0000       0.0000
23701023             913.8200       7.0000       0.0000       0.0000       0.0000
23701029             907.1100      10.0000       0.0000       0.0000       0.0000
23701032             896.2100      10.0000       0.0000       0.0000       0.0000
23701034             897.0500       8.0000       0.0000       0.0000       0.0000
23701035             891.3300       6.0000       0.0000       0.0000       0.0000
23701040             876.2900      10.0000       0.0000       0.0000       0.0000
23702010             862.7400      15.0000       0.0000       0.0000       0.0000
23702011             863.0600      15.0000       0.0000       0.0000       0.0000
23702013             860.8800      17.0000       0.0000       0.0000       0.0000
23702014             865.3200      13.0000       0.0000       0.0000       0.0000
23702015             868.2200      12.0000       0.0000       0.0000       0.0000
23702026             862.1200      20.0000       0.0000       0.0000       0.0000
23702027             867.1900      12.0000       0.0000       0.0000       0.0000
23702028             878.4900       9.0000       0.0000       0.0000       0.0000
23702029             888.7100       9.0000       0.0000       0.0000       0.0000
23702030             862.3200      17.0000       0.0000       0.0000       0.0000
23702031             863.7800      17.0000       0.0000       0.0000       0.0000
23702032             866.2700      18.0000       0.0000       0.0000       0.0000
23702036             867.8900      17.0000       0.0000       0.0000       0.0000
23702037             874.5800       8.0000       0.0000       0.0000       0.0000
23702038             874.3500      15.0000       0.0000       0.0000       0.0000
23702039             876.3500      15.0000       0.0000       0.0000       0.0000
23702040             878.8200      15.0000       0.0000       0.0000       0.0000
23702045             863.8100      12.0000       0.0000       0.0000       0.0000
23702051             860.9700      10.0000       0.0000       0.0000       0.0000
23702052             861.0600      10.0000       0.0000       0.0000       0.0000
23703001             901.0100       8.0000       0.0000       0.0000       0.0000
23703002             911.0200       7.0000       0.0000       0.0000       0.0000
23703003             913.8000       8.0000       0.0000       0.0000       0.0000
23707003             885.5100      13.0000       0.0000       0.0000       0.0000
23707004             882.6800       7.0000       0.0000       0.0000       0.0000
23707005             879.1900      10.0000       0.0000       0.0000       0.0000
23707006             877.7200       8.0000       0.0000       0.0000       0.0000
23707007             890.8300       5.0000       0.0000       0.0000       0.0000
23707008             887.9300       9.0000       0.0000       0.0000       0.0000
23707011             893.2400       8.0000       0.0000       0.0000       0.0000
23707014             884.5200      14.0000       0.0000       0.0000       0.0000
23707015             890.0300      13.0000       0.0000       0.0000       0.0000
23708023             892.8900      17.0000       0.0000       0.0000       0.0000
23708024             895.3300      16.0000       0.0000       0.0000       0.0000
23708025             893.8400      17.0000       0.0000       0.0000       0.0000
23708026             895.7400      15.0000       0.0000       0.0000       0.0000
23708027             898.3000      10.0000       0.0000       0.0000       0.0000
23708030             900.2400      14.0000       0.0000       0.0000       0.0000
23801001             825.7500      15.0000       0.0000       0.0000       0.0000
23801003             820.8300      21.0000       0.0000       0.0000       0.0000
23801005             821.6800      18.0000       0.0000       0.0000       0.0000
23801007             848.9500       7.0000       0.0000       0.0000       0.0000
23801008             848.4700       7.0000       0.0000       0.0000       0.0000
23801009             847.0900      15.0000       0.0000       0.0000       0.0000
23801010             845.6600      19.0000       0.0000       0.0000       0.0000
23801011             840.4000       8.0000       0.0000       0.0000       0.0000
23801012             833.8100       8.0000       0.0000       0.0000       0.0000
23801013             823.4000      18.0000       0.0000       0.0000       0.0000
23801014             857.8900       8.0000       0.0000       0.0000       0.0000
23801015             849.7500      11.0000       0.0000       0.0000       0.0000
23801016             841.4900       8.0000       0.0000       0.0000       0.0000
23801017             829.6500      14.0000       0.0000       0.0000       0.0000
23801018             824.8600      17.0000       0.0000       0.0000       0.0000
23801020             852.4400      12.0000       0.0000       0.0000       0.0000
23801022             845.7800      16.0000       0.0000       0.0000       0.0000
23801025             842.7900      11.0000       0.0000       0.0000       0.0000
23801026             829.7300      13.0000       0.0000       0.0000       0.0000
23801027             825.2500      17.0000       0.0000       0.0000       0.0000
23801028             826.4200      20.0000       0.0000       0.0000       0.0000
23801029             835.3200      10.0000       0.0000       0.0000       0.0000
23801032             821.9500      20.0000       0.0000       0.0000       0.0000
23802012             859.8700      12.0000       0.0000       0.0000       0.0000
23807002             831.4500      19.0000       0.0000       0.0000       0.0000
23807003             836.3600      12.0000       0.0000       0.0000       0.0000
23807004             839.0000      10.0000       0.0000       0.0000       0.0000
23807011             835.2600      19.0000       0.0000       0.0000       0.0000
23807012             836.7400      18.0000       0.0000       0.0000       0.0000
23807013             837.7500      19.0000       0.0000       0.0000       0.0000
23807017             852.7400      13.0000       0.0000       0.0000       0.0000
23807018             847.5900      13.0000       0.0000       0.0000       0.0000
23807020             842.0500      15.0000       0.0000       0.0000       0.0000
23807022             836.0200      10.0000       0.0000       0.0000       0.0000
23807028             833.7200      10.0000       0.0000       0.0000       0.0000
23807031             844.0000      15.0000       0.0000       0.0000       0.0000
23807037             844.9100      14.0000       0.0000       0.0000       0.0000
23808005             858.0400       9.0000       0.0000       0.0000       0.0000
23808006             845.2000       8.0000       0.0000       0.0000       0.0000
23808012             849.1800      12.0000       0.0000       0.0000       0.0000
23808013             879.8500      11.0000       0.0000       0.0000       0.0000
23808016             849.4900      10.0000       0.0000       0.0000       0.0000
23808017             848.4500      10.0000       0.0000       0.0000       0.0000
23808018             845.5700       7.0000       0.0000       0.0000       0.0000
23808019             827.4400      16.0000       0.0000       0.0000       0.0000
23808020             830.7900      12.0000       0.0000       0.0000       0.0000
23808021             836.7200       9.0000       0.0000       0.0000       0.0000
23808022             840.8900      21.0000       0.0000       0.0000       0.0000
23808023             842.7300      22.0000       0.0000       0.0000       0.0000
23808024             854.1900      12.0000       0.0000       0.0000       0.0000
23808025             859.3800      12.0000       0.0000       0.0000       0.0000
23808030             876.6000       9.0000       0.0000       0.0000       0.0000
23808031             837.6500      15.0000       0.0000       0.0000       0.0000
23808032             830.7600      17.0000       0.0000       0.0000       0.0000
23809002             850.6000      15.0000       0.0000       0.0000       0.0000
23809003             867.5800       8.0000       0.0000       0.0000       0.0000
23809004             865.2800      12.0000       0.0000       0.0000       0.0000
23809005             863.2400      15.0000       0.0000       0.0000       0.0000
23809006             862.3000      16.0000       0.0000       0.0000       0.0000
23809013             850.7600       7.0000       0.0000       0.0000       0.0000
23809014             854.1600      17.0000       0.0000       0.0000       0.0000
23809015             857.5000      10.0000       0.0000       0.0000       0.0000
23809019             855.8300      10.0000       0.0000       0.0000       0.0000
23809026             864.8800      12.0000       0.0000       0.0000       0.0000
23809027             870.4100      12.0000       0.0000       0.0000       0.0000
23809028             875.6300      13.0000       0.0000       0.0000       0.0000
23809042             853.5800      10.0000       0.0000       0.0000       0.0000
23809049             850.7600       8.0000       0.0000       0.0000       0.0000
23809050             850.7000      10.0000       0.0000       0.0000       0.0000
23809053             859.9400      10.0000       0.0000       0.0000       0.0000
23810003             853.0200      12.0000       0.0000       0.0000       0.0000
23810008             839.3800      21.0000       0.0000       0.0000       0.0000
23810009             840.4600      24.0000       0.0000       0.0000       0.0000
23810010             844.2700      19.0000       0.0000       0.0000       0.0000
23810011             846.3700      21.0000       0.0000       0.0000       0.0000
23810012             848.6100      23.0000       0.0000       0.0000       0.0000
23810013             850.6900      24.0000       0.0000       0.0000       0.0000
23810014             845.6300      10.0000       0.0000       0.0000       0.0000
23810015             851.9400      12.0000       0.0000       0.0000       0.0000
23810016             859.0700      13.0000       0.0000       0.0000       0.0000
23810017             865.4900      13.0000       0.0000       0.0000       0.0000
23810018             871.9300      14.0000       0.0000       0.0000       0.0000
23810019             847.2600      11.0000       0.0000       0.0000       0.0000
23810022             849.0400       9.0000       0.0000       0.0000       0.0000
23810023             850.7800       8.0000       0.0000       0.0000       0.0000
23810024             855.3800       6.0000       0.0000       0.0000       0.0000
23810025             856.1400      10.0000       0.0000       0.0000       0.0000
23810026             857.6200      10.0000       0.0000       0.0000       0.0000
23810031             848.7400      10.0000       0.0000       0.0000       0.0000
23810032             845.1500      17.0000       0.0000       0.0000       0.0000
23810033             850.7500      26.0000       0.0000       0.0000       0.0000
23811003             877.6000      14.0000       0.0000       0.0000       0.0000
23811004             884.7400      15.0000       0.0000       0.0000       0.0000
23811005             887.0200      18.0000       0.0000       0.0000       0.0000
23811028             877.7300      11.0000       0.0000       0.0000       0.0000
23811029             887.1100      13.0000       0.0000       0.0000       0.0000
23814006             886.2600      14.0000       0.0000       0.0000       0.0000
23814009             880.5200      15.0000       0.0000       0.0000       0.0000
23814010             883.4800      18.0000       0.0000       0.0000       0.0000
23815002             880.6700      15.0000       0.0000       0.0000       0.0000
23815003             882.9800      14.0000       0.0000       0.0000       0.0000
23815004             884.3100      14.0000       0.0000       0.0000       0.0000
23815005             885.3400      14.0000       0.0000       0.0000       0.0000
23815008             880.2200      14.0000       0.0000       0.0000       0.0000
23815009             870.1300      12.0000       0.0000       0.0000       0.0000
23815010             863.1500      12.0000       0.0000       0.0000       0.0000
23815014             851.9100      21.0000       0.0000       0.0000       0.0000
23815015             854.2200      21.0000       0.0000       0.0000       0.0000
23815016             857.2200      22.0000       0.0000       0.0000       0.0000
23815017             859.5900      16.0000       0.0000       0.0000       0.0000
23815018             859.7300      12.0000       0.0000       0.0000       0.0000
23815019             855.5800      12.0000       0.0000       0.0000       0.0000
23815020             853.0800      18.0000       0.0000       0.0000       0.0000
23815021             855.8400       7.0000       0.0000       0.0000       0.0000
23815022             857.9400       8.0000       0.0000       0.0000       0.0000
23815023             859.4800      12.0000       0.0000       0.0000       0.0000
23815024             861.1900      18.0000       0.0000       0.0000       0.0000
23815025             859.1000      11.0000       0.0000       0.0000       0.0000
23815026             868.2800      11.0000       0.0000       0.0000       0.0000
23815029             876.7400      12.0000       0.0000       0.0000       0.0000
23815030             873.5100      13.0000       0.0000       0.0000       0.0000
23815031             869.8700      12.0000       0.0000       0.0000       0.0000
23815032             867.9700      12.0000       0.0000       0.0000       0.0000
23815033             866.3900      13.0000       0.0000       0.0000       0.0000
23815038             852.6000      10.0000       0.0000       0.0000       0.0000
23816003             861.9100      10.0000       0.0000       0.0000       0.0000
23816006             864.4800       9.0000       0.0000       0.0000       0.0000
23816011             865.0000      15.0000       0.0000       0.0000       0.0000
23816014             868.1400      11.0000       0.0000       0.0000       0.0000
23816015             870.4100       5.0000       0.0000       0.0000       0.0000
23816016             874.4900      10.0000       0.0000       0.0000       0.0000
23816017             884.6900       7.0000       0.0000       0.0000       0.0000
23816018             886.6200       7.0000       0.0000       0.0000       0.0000
23816036             867.2500      15.0000       0.0000       0.0000       0.0000
23816037             866.0000      14.0000       0.0000       0.0000       0.0000
23916007             816.9100      23.0000       0.0000       0.0000       0.0000
23916008             826.9400      12.0000       0.0000       0.0000       0.0000
23916014             838.6500      15.0000       0.0000       0.0000       0.0000
23916015             818.2600      23.0000       0.0000       0.0000       0.0000
23916016             827.1500      14.0000       0.0000       0.0000       0.0000
23916017             830.1900      13.0000       0.0000       0.0000       0.0000
23916025             831.9900      11.0000       0.0000       0.0000       0.0000
23916026             819.7700      23.0000       0.0000       0.0000       0.0000
23916027             828.5700      13.0000       0.0000       0.0000       0.0000

[OUTFALLS]
;;Name             Elev         Type         Gated   
;;---------------- ------------ ------------ --------
23916003             815.2300 NORMAL       NO

[CONDUITS]
;;Name             FromNode         ToNode           Length       Roughness    InOffset     OutOffset    InitFlow   MaxFlow   
;;---------------- ---------------- ---------------- ------------ ------------ ------------ ------------ ---------- ----------
20704016-20704017 20704016         20704017             229.3900     0.015000       0.0000       0.0000     0.0000     0.0000
20704017-20704018 20704017         20704018             230.3800     0.015000       0.0000       0.0000     0.0000     0.0000
20704018-20704025 20704018         20704025             229.4600     0.015000       0.0000       0.0000     0.0000     0.0000
20704025-23916025 20704025         23916025             230.8000     0.015000       0.0000       3.1800     0.0000     0.0000
20712009-20712010 20712009         20712010             229.5500     0.015000       0.0000       0.0000     0.0000     0.0000
20712010-20712011 20712010         20712011             189.1200     0.015000       0.0000       0.1900     0.0000     0.0000
20712011-23809003 20712011         23809003             171.8000     0.015000       0.0000       0.0800     0.0000     0.0000
20713008-23816017 20713008         23816017             269.5100     0.015000       0.0000       0.0000     0.0000     0.0000
23701001-23701040 23701001         23701040              36.6200     0.015000       0.0000       0.0000     0.0000     0.0000
23701005-23701001 23701005         23701001             291.3300     0.015000       0.0000       0.0000     0.0000     0.0000
23701006-23701005 23701006         23701005              80.3700     0.015000       0.0000       0.3400     0.0000     0.0000
23701007-23701006 23701007         23701006              45.6300     0.015000       0.0000       0.0000     0.0000     0.0000
23701008-23701007 23701008         23701007             129.4700     0.015000       0.0000       0.0000     0.0000     0.0000
23701009-23701008 23701009         23701008             137.0900     0.015000       0.0000       0.0000     0.0000     0.0000
23701010-23701009 23701010         23701009              22.0800     0.015000       0.0000       0.0000     0.0000     0.0000
23701011-23701010 23701011         23701010             118.5200     0.015000       0.0000       0.0000     0.0000     0.0000
23701016-23701032 23701016         23701032              15.0500     0.015000       0.0000       0.0000     0.0000     0.0000
23701017-23701018 23701017         23701018             130.2000     0.015000       0.0000       0.0000     0.0000     0.0000
23701018-23701019 23701018         23701019             178.0000     0.015000       0.0000       0.0000     0.0000     0.0000
23701019-23701006 23701019         23701006              13.4100     0.015000       0.0000       0.3600     0.0000     0.0000
23701023-23701009 23701023         23701009             278.0700     0.015000       0.0000       5.5900     0.0000     0.0000
23701029-23701011 23701029         23701011             147.5500     0.015000       0.0000       0.0000     0.0000     0.0000
23701032-23701035 23701032         23701035             242.3100     0.015000       0.0000       0.0000     0.0000     0.0000
23701034-23816018 23701034         23816018             248.7000     0.015000       0.0000       0.0000     0.0000     0.0000
23701035-23701005 23701035         23701005              21.6000     0.015000       0.0000       0.2800     0.0000     0.0000
23701040-23816016 23701040         23816016             161.6000     0.015000       0.0000       0.4700     0.0000     0.0000
23702010-23815024 23702010         23815024             206.3300     0.015000       0.0000       0.0000     0.0000     0.0000
23702011-23702010 23702011         23702010              59.5600     0.015000       0.0000       0.0000     0.0000     0.0000
23702013-23815017 23702013         23815017             148.3500     0.015000       0.0000       0.0000     0.0000     0.0000
23702014-23702013 23702014         23702013              35.0300     0.015000       0.0000       1.7400     0.0000     0.0000
23702015-23702014 23702015         23702014              87.9200     0.015000       0.0000       0.0000     0.0000     0.0000
23702026-23702052 23702026         23702052             112.7400     0.015000       0.0000       0.0000     0.0000     0.0000
23807002-23808032 23807002         23808032             106.7000     0.015000       0.0000       0.0000     0.0000     0.0000
23807003-23807002 23807003         23807002              16.8600     0.015000       0.0000       4.5000     0.0000     0.0000
23807004-23807003 23807004         23807003              45.0500     0.015000       0.0000       1.2400     0.0000     0.0000
23702027-23702026 23702027         23702026              35.3900     0.015000       0.0000       0.8800     0.0000     0.0000
23702028-23702027 23702028         23702027             187.7400     0.015000       0.0000       0.0000     0.0000     0.0000
23702029-23702028 23702029         23702028             191.6300     0.015000       0.0000       0.0000     0.0000     0.0000
23702030-23702026 23702030         23702026              18.6500     0.015000       0.0000       0.0000     0.0000     0.0000
23702031-23702030 23702031         23702030             205.6000     0.015000       0.0000       0.0000     0.0000     0.0000
23702032-23702031 23702032         23702031             106.0500     0.015000       0.0000       0.0000     0.0000     0.0000
23702036-23702032 23702036         23702032              64.7900     0.015000       0.0000       0.0000     0.0000     0.0000
23702037-23702036 23702037         23702036             257.5800     0.015000       0.0000       0.6800     0.0000     0.0000
23702038-23702036 23702038         23702036             171.1000     0.015000       0.0000       0.0000     0.0000     0.0000
23702039-23702038 23702039         23702038              70.2300     0.015000       0.0000       0.0000     0.0000     0.0000
23702040-23702039 23702040         23702039              97.8800     0.015000       0.0000       0.0000     0.0000     0.0000
23702045-23815017 23702045         23815017              25.8100     0.015000       0.0000       2.2400     0.0000     0.0000
23702051-23702013 23702051         23702013              10.0000     0.015000       0.0000       0.0000     0.0000     0.0000
23702052-23702051 23702052         23702051               9.4000     0.015000       0.0000       0.0000     0.0000     0.0000
23703001-23702029 23703001         23702029             209.5400     0.015000       0.0000       0.0000     0.0000     0.0000
23703002-23703001 23703002         23703001             167.5800     0.015000       0.0000       0.0000     0.0000     0.0000
23703003-23703002 23703003         23703002              90.4400     0.015000       0.0000       0.0000     0.0000     0.0000
23707003-23707004 23707003         23707004             179.2200     0.015000       0.0000       0.0000     0.0000     0.0000
23707004-23707005 23707004         23707005             186.3600     0.015000       0.0000       0.0000     0.0000     0.0000
23707005-23707006 23707005         23707006              78.2400     0.015000       0.0000       0.0000     0.0000     0.0000
23707006-23702037 23707006         23702037             198.6500     0.015000       0.0000       0.0000     0.0000     0.0000
23707007-23707006 23707007         23707006             326.9900     0.015000       0.0000       0.0000     0.0000     0.0000
23707008-23707003 23707008         23707003             172.1300     0.015000       0.0000       0.1900     0.0000     0.0000
23707011-23707008 23707011         23707008             321.4000     0.015000       0.0000       0.8700     0.0000     0.0000
23707014-23702040 23707014         23702040             177.8800     0.015000       0.0000       0.0000     0.0000     0.0000
23707015-23707014 23707015         23707014             173.0100     0.015000       0.0000       0.0000     0.0000     0.0000
23708023-23707008 23708023         23707008             319.1100     0.015000       0.0400       0.0000     0.0000     0.0000
23708024-23708023 23708024         23708023              38.4100     0.015000       0.0000       1.8600     0.0000     0.0000
23708025-23708023 23708025         23708023              35.0400     0.015000       0.0000       0.0000     0.0000     0.0000
23708026-23708023 23708026         23708023              38.1800     0.015000       0.0000       2.5100     0.0000     0.0000
23708026-23708025 23708026         23708025              15.4600     0.015000       0.0400       1.6900     0.0000     0.0000
23708027-23708026 23708027         23708026             272.2400     0.015000       0.0400       0.0400     0.0000     0.0000
23708030-23708027 23708030         23708027             155.1700     0.015000       0.0000       0.0000     0.0000     0.0000
23801001-23801003 23801001         23801003             251.9100     0.015000       0.0000       4.1700     0.0000     0.0000
23801003-23916026 23801003         23916026             170.8000     0.015000       0.0000       0.0000     0.0000     0.0000
23801005-23801003 23801005         23801003             135.6900     0.015000       0.0000       0.0000     0.0000     0.0000
23801007-23801008 23801007         23801008              36.2000     0.015000       0.0000       0.0000     0.0000     0.0000
23801008-23801009 23801008         23801009             130.9600     0.015000       0.0000       0.0000     0.0000     0.0000
23801009-23801010 23801009         23801010             137.8800     0.015000       0.0000       0.0000     0.0000     0.0000
23801010-23801011 23801010         23801011             232.2800     0.015000       0.0000       0.0000     0.0000     0.0000
23801011-23801012 23801011         23801012             200.4600     0.015000       0.0000       0.0000     0.0000     0.0000
23801012-23801013 23801012         23801013             109.3800     0.015000       0.0000       4.0600     0.0000     0.0000
23801013-23801032 23801013         23801032             263.2800     0.015000       0.0000       0.0000     0.0000     0.0000
23801014-23801015 23801014         23801015             175.2800     0.015000       0.0000       0.0000     0.0000     0.0000
23801015-23801016 23801015         23801016             178.5300     0.015000       0.0000       0.0000     0.0000     0.0000
23801016-23801017 23801016         23801017             222.2400     0.015000       0.0000       4.8000     0.0000     0.0000
23801017-23801018 23801017         23801018              18.9300     0.015000       0.0000       0.0000     0.0000     0.0000
23801018-23801013 23801018         23801013             235.2100     0.015000       0.0000       0.0000     0.0000     0.0000
23801020-23801022 23801020         23801022             148.5700     0.015000       0.0000       0.0000     0.0000     0.0000
23801022-23801025 23801022         23801025             149.4900     0.015000       0.0000       0.0000     0.0000     0.0000
23801025-23801026 23801025         23801026             197.0000     0.015000       0.0000       3.8100     0.0000     0.0000
23801026-23801027 23801026         23801027             100.0000     0.007000       0.0000       0.0000     0.0000     0.0000
23801027-23801018 23801027         23801018             100.0000     0.005000       0.0000       0.3300     0.0000     0.0000
23801028-23801027 23801028         23801027             246.8900     0.015000       0.0000       0.0000     0.0000     0.0000
23801029-23801028 23801029         23801028              97.4900     0.015000       0.0000       7.1700     0.0000     0.0000
23801032-23801005 23801032         23801005              40.2100     0.015000       0.0000       0.0000     0.0000     0.0000
23802012-23807017 23802012         23807017             260.6200     0.015000       0.0000       0.1700     0.0000     0.0000
23807011-23807028 23807011         23807028             239.5100     0.015000       0.0000       0.0000     0.0000     0.0000
23807012-23807022 23807012         23807022             139.2500     0.015000       0.0000       0.0000     0.0000     0.0000
23807013-23807012 23807013         23807012             179.9300     0.015000       0.0000       0.0000     0.0000     0.0000
23807017-23807018 23807017         23807018             178.2100     0.015000       0.0000       0.0800     0.0000     0.0000
23807018-23807037 23807018         23807037              79.3000     0.015000       0.0000       0.0800     0.0000     0.0000
23807020-23807022 23807020         23807022              22.6700     0.015000       0.0000       5.9100     0.0000     0.0000
23807022-23807011 23807022         23807011             147.7400     0.015000       0.0000       0.0000     0.0000     0.0000
23807028-23807002 23807028         23807002             353.5900     0.015000       0.0000       0.0000     0.0000     0.0000
23807031-23807012 23807031         23807012              41.4600     0.015000       0.0000       7.1100     0.0000     0.0000
23807037-23807020 23807037         23807020              40.3500     0.015000       0.0000       0.0000     0.0000     0.0000
23808005-23808006 23808005         23808006             223.6400     0.015000       0.0000       0.0000     0.0000     0.0000
23808006-23808031 23808006         23808031             103.0700     0.015000       0.0000       3.1600     0.0000     0.0000
23808012-23808022 23808012         23808022              45.2800     0.015000       0.0000       3.5800     0.0000     0.0000
23808013-23808030 23808013         23808030             103.3800     0.015000       0.0000       0.0000     0.0000     0.0000
23808016-23808017 23808016         23808017              38.4000     0.015000       0.0000       0.0000     0.0000     0.0000
23808017-23808018 23808017         23808018             260.4700     0.015000       0.0000       0.0000     0.0000     0.0000
23808018-23808023 23808018         23808023             253.6900     0.015000       0.0000       0.0000     0.0000     0.0000
23808019-23801028 23808019         23801028             148.4300     0.015000       0.0000       0.0000     0.0000     0.0000
23808020-23808019 23808020         23808019              69.1600     0.015000       0.0000       2.0800     0.0000     0.0000
23808021-23808020 23808021         23808020             221.0300     0.015000       0.0000       1.8400     0.0000     0.0000
23808022-23808031 23808022         23808031             166.3400     0.015000       0.0000       0.0000     0.0000     0.0000
23808023-23808022 23808023         23808022             131.2200     0.015000       0.0000       0.0000     0.0000     0.0000
23808024-23808023 23808024         23808023              36.4600     0.015000       0.0000       4.3200     0.0000     0.0000
23808025-23808024 23808025         23808024             164.4700     0.015000       0.0000       0.0000     0.0000     0.0000
23808030-23809003 23808030         23809003             271.0600     0.015000       0.0000       0.5800     0.0000     0.0000
23808031-23808021 23808031         23808021              51.0500     0.015000       0.0000       0.0000     0.0000     0.0000
23808032-23808019 23808032         23808019             436.5400     0.015000       0.0000       1.1000     0.0000     0.0000
23809002-23808016 23809002         23808016             154.7400     0.015000       0.0000       0.0000     0.0000     0.0000
23809003-23809004 23809003         23809004             173.9300     0.015000       0.0000       0.0000     0.0000     0.0000
23809004-23809005 23809004         23809005             168.1300     0.015000       0.0000       0.0000     0.0000     0.0000
23809005-23809006 23809005         23809006              28.0100     0.015000       0.0000       0.0000     0.0000     0.0000
23809006-23809049 23809006         23809049             191.0900     0.015000       0.0000       0.1400     0.0000     0.0000
23809013-23809049 23809013         23809049               4.4100     0.015000       0.0000       0.0000     0.0000     0.0000
23809014-23809042 23809014         23809042              53.3800     0.015000       0.0000       0.0000     0.0000     0.0000
23809015-23809019 23809015         23809019             156.9200     0.015000       0.0000       0.0000     0.0000     0.0000
23809019-23809014 23809019         23809014             157.4000     0.015000       0.0000       0.0000     0.0000     0.0000
23809026-23808025 23809026         23808025             172.9600     0.015000       0.0000       0.0000     0.0000     0.0000
23809027-23809026 23809027         23809026             172.4900     0.015000       0.0000       0.0000     0.0000     0.0000
23809028-23809027 23809028         23809027             169.1300     0.015000       0.0000       0.0000     0.0000     0.0000
23809042-23809013 23809042         23809013             258.8100     0.015000       0.0000       0.0000     0.0000     0.0000
23809049-23809050 23809049         23809050               2.5300     0.015000       0.0000       0.0600     0.0000     0.0000
23809050-23809002 23809050         23809002              24.5100     0.015000       0.0000       0.1000     0.0000     0.0000
23809053-23809015 23809053         23809015             163.6800     0.015000       0.0000       0.0000     0.0000     0.0000
23810003-23810010 23810003         23810010              26.3800     0.015000       0.0000       7.5000     0.0000     0.0000
23810008-23807013 23810008         23807013             242.4000     0.015000       0.0000       0.0000     0.0000     0.0000
23810009-23810008 23810009         23810008             238.4500     0.015000       0.0000       0.0000     0.0000     0.0000
23810010-23810009 23810010         23810009              37.4800     0.015000       0.0000       3.1300     0.0000     0.0000
23810011-23810010 23810011         23810010             230.5700     0.015000       0.0000       0.0000     0.0000     0.0000
23810012-23810011 23810012         23810011             242.6500     0.015000       0.0000       0.0000     0.0000     0.0000
23810013-23810012 23810013         23810012             236.4500     0.015000       0.0000       0.0000     0.0000     0.0000
23810014-23810032 23810014         23810032              64.4700     0.015000       0.0000       0.0000     0.0000     0.0000
23810015-23810014 23810015         23810014              40.1600     0.015000       0.0000       2.0000     0.0000     0.0000
23810016-23810015 23810016         23810015             169.5900     0.015000       0.0000       0.0000     0.0000     0.0000
23810017-23810016 23810017         23810016             162.1600     0.015000       0.0000       0.0000     0.0000     0.0000
23810018-23810017 23810018         23810017             161.7700     0.015000       0.0000       0.0000     0.0000     0.0000
23810019-23810014 23810019         23810014             216.2400     0.015000       0.0000       0.0000     0.0000     0.0000
23810022-23810031 23810022         23810031              33.3800     0.015000       0.0000       0.0000     0.0000     0.0000
23810023-23810033 23810023         23810033              11.8400     0.015000       0.0000       0.0000     0.0000     0.0000
23810024-23810033 23810024         23810033              23.2600     0.015000       0.0000       1.7500     0.0000     0.0000
23810025-23810024 23810025         23810024             144.0100     0.015000       0.0000       0.0000     0.0000     0.0000
23810026-23810025 23810026         23810025              41.9200     0.015000       0.0000       0.0300     0.0000     0.0000
23810031-23810019 23810031         23810019             162.9800     0.015000       0.0000       0.0000     0.0000     0.0000
23810032-23810009 23810032         23810009             103.7000     0.015000       0.0000       3.6300     0.0000     0.0000
23810033-23810022 23810033         23810022             183.4500     0.015000       0.0000       0.0000     0.0000     0.0000
23811003-23810018 23811003         23810018             162.0900     0.015000       0.0000       0.0000     0.0000     0.0000
23811004-23811003 23811004         23811003             159.1100     0.015000       0.0000       0.0000     0.0000     0.0000
23811005-23811004 23811005         23811004             144.4100     0.015000       0.0000       0.3100     0.0000     0.0000
23811028-23815026 23811028         23815026             180.0300     0.015000       0.0000       0.0000     0.0000     0.0000
23811029-23811028 23811029         23811028             188.8200     0.015000       0.0000       0.0000     0.0000     0.0000
23814006-23814010 23814006         23814010             158.9700     0.015000       0.0000       0.0000     0.0000     0.0000
23814009-23815029 23814009         23815029             161.0400     0.015000       0.0000       0.3500     0.0000     0.0000
23814010-23814009 23814010         23814009             162.9000     0.015000       0.0000       0.0000     0.0000     0.0000
23815002-23815008 23815002         23815008              39.5500     0.015000       0.0000       0.0800     0.0000     0.0000
23815003-23815002 23815003         23815002             286.8300     0.015000       0.0000       0.0000     0.0000     0.0000
23815004-23815003 23815004         23815003             170.1600     0.015000       0.0000       0.1100     0.0000     0.0000
23815005-23815004 23815005         23815004             170.0700     0.015000       0.0000       0.0000     0.0000     0.0000
23815008-23815009 23815008         23815009             252.1200     0.015000       0.0000       0.0000     0.0000     0.0000
23815009-23815010 23815009         23815010             164.5500     0.015000       0.0000       0.3300     0.0000     0.0000
23815010-23810013 23815010         23810013              32.6300     0.015000       0.0000      10.8600     0.0000     0.0000
23815014-23810013 23815014         23810013             139.5100     0.015000       0.0000       0.0000     0.0000     0.0000
23815015-23815014 23815015         23815014             249.4200     0.015000       0.0000       0.0200     0.0000     0.0000
23815016-23815015 23815016         23815015             339.2000     0.015000       0.0000       0.0000     0.0000     0.0000
23815017-23815016 23815017         23815016             268.1100     0.015000       0.0000       0.0000     0.0000     0.0000
23815018-23815019 23815018         23815019             100.1000     0.015000       0.0000       0.0400     0.0000     0.0000
23815019-23815038 23815019         23815038              50.3600     0.015000       0.0000       0.9400     0.0000     0.0000
23815020-23815038 23815020         23815038              38.5500     0.015000       0.0000       0.0000     0.0000     0.0000
23815021-23815020 23815021         23815020             215.6800     0.015000       0.0000       0.1000     0.0000     0.0000
23815022-23815021 23815022         23815021             210.6900     0.015000       0.0000       0.0000     0.0000     0.0000
23815023-23815022 23815023         23815022             176.9500     0.015000       0.0000       0.0000     0.0000     0.0000
23815024-23815023 23815024         23815023             207.2100     0.015000       0.0000       0.0000     0.0000     0.0000
23815025-23810026 23815025         23810026             174.4600     0.015000       0.0000       0.0000     0.0000     0.0000
23815026-23815025 23815026         23815025             180.6900     0.015000       0.0000       0.4100     0.0000     0.0000
23815029-23815030 23815029         23815030             161.7100     0.015000       0.0000       0.0000     0.0000     0.0000
23815030-23815031 23815030         23815031             170.8100     0.015000       0.0000       0.0000     0.0000     0.0000
23815031-23815032 23815031         23815032             100.1900     0.015000       0.0000       0.0000     0.0000     0.0000
23815032-23815033 23815032         23815033              56.5800     0.015000       0.0000       0.0000     0.0000     0.0000
23815033-23815024 23815033         23815024              50.2500     0.015000       0.0000       0.8800     0.0000     0.0000
23815038-23810023 23815038         23810023             155.3500     0.015000       0.0000       0.0000     0.0000     0.0000
23816003-23809053 23816003         23809053             132.8700     0.015000       0.0000       0.0000     0.0000     0.0000
23816006-23816003 23816006         23816003             172.2000     0.015000       0.0000       0.0000     0.0000     0.0000
23816011-23816006 23816011         23816006             140.6700     0.015000       0.0000       0.0000     0.0000     0.0000
23816014-23816036 23816014         23816036              82.7800     0.015000       0.0000       0.0000     0.0000     0.0000
23816015-23816014 23816015         23816014             207.8700     0.015000       0.0000       0.0000     0.0000     0.0000
23816016-23816015 23816016         23816015             187.1100     0.015000       0.0000       0.0000     0.0000     0.0000
23816017-23816014 23816017         23816014             286.5000     0.015000       0.0000       1.2000     0.0000     0.0000
23816018-23816016 23816018         23816016             246.6700     0.015000       0.0000       0.0000     0.0000     0.0000
23816036-23816037 23816036         23816037              99.6700     0.015000       0.0000       0.0000     0.0000     0.0000
23816037-23816011 23816037         23816011              37.0000     0.015000       0.0000       0.0000     0.0000     0.0000
23916007-23916003 23916007         23916003               1.8800     0.019000       0.0000       0.0000     0.0000     0.0000
23916008-23916007 23916008         23916007               4.1600     0.015000       0.0000       4.0500     0.0000     0.0000
23916014-23916015 23916014         23916015             171.8200     0.015000       0.0000       8.8300     0.0000     0.0000
23916015-23916007 23916015         23916007             269.5500     0.015000       0.0000       0.0000     0.0000     0.0000
23916016-23916015 23916016         23916015              49.9200     0.015000       0.0000       4.4100     0.0000     0.0000
23916017-23916016 23916017         23916016             113.1700     0.015000       0.0000       0.1700     0.0000     0.0000
23916025-23916026 23916025         23916026             198.2400     0.015000       0.0000       8.4100     0.0000     0.0000
23916026-23916015 23916026         23916015             263.3500     0.015000       0.0000       0.0000     0.0000     0.0000
23916027-23916026 23916027         23916026              44.2500     0.015000       0.0000       4.1800     0.0000     0.0000

[XSECTIONS]
;;Link             Shape            Geom1        Geom2        Geom3        Geom4        Barrels 
;;---------------- ---------------- ------------ ------------ ------------ ------------ --------
20704016-20704017 CIRCULAR               1.0000       0.0000       0.0000       0.0000        1
20704017-20704018 CIRCULAR               1.0000       0.0000       0.0000       0.0000        1
20704018-20704025 CIRCULAR               1.0000       0.0000       0.0000       0.0000        1
20704025-23916025 CIRCULAR               1.0000       0.0000       0.0000       0.0000        1
20712009-20712010 CIRCULAR               1.0000       0.0000       0.0000       0.0000        1
20712010-20712011 CIRCULAR               1.0000       0.0000       0.0000       0.0000        1
20712011-23809003 CIRCULAR               1.2500       0.0000       0.0000       0.0000        1
20713008-23816017 CIRCULAR               1.0000       0.0000       0.0000       0.0000        1
23701001-23701040 CIRCULAR               2.0000       0.0000       0.0000       0.0000        1
23701005-23701001 CIRCULAR               2.0000       0.0000       0.0000       0.0000        1
23701006-23701005 CIRCULAR               2.0000       0.0000       0.0000       0.0000        1
23701007-23701006 CIRCULAR               2.0000       0.0000       0.0000       0.0000        1
23701008-23701007 CIRCULAR               1.7500       0.0000       0.0000       0.0000        1
23701009-23701008 CIRCULAR               1.7500       0.0000       0.0000       0.0000        1
23701010-23701009 CIRCULAR               1.5000       0.0000       0.0000       0.0000        1
23701011-23701010 CIRCULAR               1.5000       0.0000       0.0000       0.0000        1
23701016-23701032 CIRCULAR               1.8300       0.0000       0.0000       0.0000        1
23701017-23701018 CIRCULAR               1.5000       0.0000       0.0000       0.0000        1
23701018-23701019 CIRCULAR               1.5000       0.0000       0.0000       0.0000        1
23701019-23701006 CIRCULAR               1.5000       0.0000       0.0000       0.0000        1
23701023-23701009 CIRCULAR               1.0000       0.0000       0.0000       0.0000        1
23701029-23701011 CIRCULAR               1.5000       0.0000       0.0000       0.0000        1
23701032-23701035 CIRCULAR               1.7500       0.0000       0.0000       0.0000        1
23701034-23816018 CIRCULAR               1.0000       0.0000       0.0000       0.0000        1
23701035-23701005 CIRCULAR               2.0000       0.0000       0.0000       0.0000        1
23701040-23816016 CIRCULAR               3.0000       0.0000       0.0000       0.0000        1
23702010-23815024 CIRCULAR               3.5000       0.0000       0.0000       0.0000        1
23702011-23702010 CIRCULAR               3.5000       0.0000       0.0000       0.0000        1
23702013-23815017 CIRCULAR               5.0000       0.0000       0.0000       0.0000        1
23702014-23702013 CIRCULAR               2.0000       0.0000       0.0000       0.0000        1
23702015-23702014 CIRCULAR               2.0000       0.0000       0.0000       0.0000        1
23702026-23702052 CIRCULAR               5.0000       0.0000       0.0000       0.0000        1
23807002-23808032 CIRCULAR               7.0000       0.0000       0.0000       0.0000        1
23807003-23807002 CIRCULAR               1.5000       0.0000       0.0000       0.0000        1
23807004-23807003 CIRCULAR               1.5000       0.0000       0.0000       0.0000        1
23702027-23702026 CIRCULAR               1.2500       0.0000       0.0000       0.0000        1
23702028-23702027 CIRCULAR               1.0000       0.0000       0.0000       0.0000        1
23702029-23702028 CIRCULAR               1.0000       0.0000       0.0000       0.0000        1
23702030-23702026 CIRCULAR               5.0000       0.0000       0.0000       0.0000        1
23702031-23702030 CIRCULAR               5.0000       0.0000       0.0000       0.0000        1
23702032-23702031 CIRCULAR               5.0000       0.0000       0.0000       0.0000        1
23702036-23702032 CIRCULAR               5.0000       0.0000       0.0000       0.0000        1
23702037-23702036 CIRCULAR               2.7500       0.0000       0.0000       0.0000        1
23702038-23702036 CIRCULAR               2.5000       0.0000       0.0000       0.0000        1
23702039-23702038 CIRCULAR               2.5000       0.0000       0.0000       0.0000        1
23702040-23702039 CIRCULAR               2.5000       0.0000       0.0000       0.0000        1
23702045-23815017 CIRCULAR               1.5000       0.0000       0.0000       0.0000        1
23702051-23702013 CIRCULAR               5.0000       0.0000       0.0000       0.0000        1
23702052-23702051 CIRCULAR               5.0000       0.0000       0.0000       0.0000        1
23703001-23702029 CIRCULAR               1.0000       0.0000       0.0000       0.0000        1
23703002-23703001 CIRCULAR               1.0000       0.0000       0.0000       0.0000        1
23703003-23703002 CIRCULAR               1.0000       0.0000       0.0000       0.0000        1
23707003-23707004 CIRCULAR               2.5000       0.0000       0.0000       0.0000        1
23707004-23707005 CIRCULAR               2.5000       0.0000       0.0000       0.0000        1
23707005-23707006 CIRCULAR               2.5000       0.0000       0.0000       0.0000        1
23707006-23702037 CIRCULAR               2.5000       0.0000       0.0000       0.0000        1
23707007-23707006 CIRCULAR               1.5000       0.0000       0.0000       0.0000        1
23707008-23707003 CIRCULAR               2.2500       0.0000       0.0000       0.0000        1
23707011-23707008 CIRCULAR               1.5000       0.0000       0.0000       0.0000        1
23707014-23702040 CIRCULAR               2.0000       0.0000       0.0000       0.0000        1
23707015-23707014 CIRCULAR               2.0000       0.0000       0.0000       0.0000        1
23708023-23707008 CIRCULAR               2.2500       0.0000       0.0000       0.0000        1
23708024-23708023 CIRCULAR               1.5000       0.0000       0.0000       0.0000        1
23708025-23708023 CIRCULAR               2.2500       0.0000       0.0000       0.0000        1
23708026-23708023 CIRCULAR               2.0000       0.0000       0.0000       0.0000        1
23708026-23708025 CIRCULAR               2.0000       0.0000       0.0000       0.0000        1
23708027-23708026 CIRCULAR               2.0000       0.0000       0.0000       0.0000        1
23708030-23708027 CIRCULAR               1.5000       0.0000       0.0000       0.0000        1
23801001-23801003 CIRCULAR               2.0000       0.0000       0.0000       0.0000        1
23801003-23916026 CIRCULAR               8.0000       0.0000       0.0000       0.0000        1
23801005-23801003 CIRCULAR               8.0000       0.0000       0.0000       0.0000        1
23801007-23801008 CIRCULAR               1.8300       0.0000       0.0000       0.0000        1
23801008-23801009 CIRCULAR               1.8300       0.0000       0.0000       0.0000        1
23801009-23801010 CIRCULAR               1.8300       0.0000       0.0000       0.0000        1
23801010-23801011 CIRCULAR               1.8300       0.0000       0.0000       0.0000        1
23801011-23801012 CIRCULAR               1.8300       0.0000       0.0000       0.0000        1
23801012-23801013 CIRCULAR               2.0000       0.0000       0.0000       0.0000        1
23801013-23801032 CIRCULAR               8.0000       0.0000       0.0000       0.0000        1
23801014-23801015 CIRCULAR               1.0000       0.0000       0.0000       0.0000        1
23801015-23801016 CIRCULAR               1.0000       0.0000       0.0000       0.0000        1
23801016-23801017 CIRCULAR               1.0000       0.0000       0.0000       0.0000        1
23801017-23801018 CIRCULAR               1.5000       0.0000       0.0000       0.0000        1
23801018-23801013 CIRCULAR               8.0000       0.0000       0.0000       0.0000        1
23801020-23801022 CIRCULAR               1.5000       0.0000       0.0000       0.0000        1
23801022-23801025 CIRCULAR               1.5000       0.0000       0.0000       0.0000        1
23801025-23801026 CIRCULAR               1.5000       0.0000       0.0000       0.0000        1
23801026-23801027 CIRCULAR               1.5000       0.0000       0.0000       0.0000        1
23801027-23801018 CIRCULAR               8.0000       0.0000       0.0000       0.0000        1
23801028-23801027 CIRCULAR               8.0000       0.0000       0.0000       0.0000        1
23801029-23801028 CIRCULAR               1.5000       0.0000       0.0000       0.0000        1
23801032-23801005 CIRCULAR               8.0000       0.0000       0.0000       0.0000        1
23802012-23807017 CIRCULAR               1.5000       0.0000       0.0000       0.0000        1
23807011-23807028 CIRCULAR               7.0000       0.0000       0.0000       0.0000        1
23807012-23807022 CIRCULAR               7.0000       0.0000       0.0000       0.0000        1
23807013-23807012 CIRCULAR               7.0000       0.0000       0.0000       0.0000        1
23807017-23807018 CIRCULAR               1.7500       0.0000       0.0000       0.0000        1
23807018-23807037 CIRCULAR               2.0000       0.0000       0.0000       0.0000        1
23807020-23807022 CIRCULAR               2.0000       0.0000       0.0000       0.0000        1
23807022-23807011 CIRCULAR               7.0000       0.0000       0.0000       0.0000        1
23807028-23807002 CIRCULAR               7.0000       0.0000       0.0000       0.0000        1
23807031-23807012 CIRCULAR               2.0000       0.0000       0.0000       0.0000        1
23807037-23807020 CIRCULAR               2.0000       0.0000       0.0000       0.0000        1
23808005-23808006 CIRCULAR               1.5000       0.0000       0.0000       0.0000        1
23808006-23808031 CIRCULAR               1.5000       0.0000       0.0000       0.0000        1
23808012-23808022 CIRCULAR               1.5000       0.0000       0.0000       0.0000        1
23808013-23808030 CIRCULAR               1.0000       0.0000       0.0000       0.0000        1
23808016-23808017 CIRCULAR               4.0000       0.0000       0.0000       0.0000        1
23808017-23808018 CIRCULAR               4.0000       0.0000       0.0000       0.0000        1
23808018-23808023 CIRCULAR               4.0000       0.0000       0.0000       0.0000        1
23808019-23801028 CIRCULAR               8.0000       0.0000       0.0000       0.0000        1
23808020-23808019 CIRCULAR               5.0000       0.0000       0.0000       0.0000        1
23808021-23808020 CIRCULAR               4.0000       0.0000       0.0000       0.0000        1
23808022-23808031 CIRCULAR               4.0000       0.0000       0.0000       0.0000        1
23808023-23808022 CIRCULAR               4.0000       0.0000       0.0000       0.0000        1
23808024-23808023 CIRCULAR               1.5000       0.0000       0.0000       0.0000        1
23808025-23808024 CIRCULAR               1.5000       0.0000       0.0000       0.0000        1
23808030-23809003 CIRCULAR               1.0000       0.0000       0.0000       0.0000        1
23808031-23808021 CIRCULAR               4.0000       0.0000       0.0000       0.0000        1
23808032-23808019 CIRCULAR               7.0000       0.0000       0.0000       0.0000        1
23809002-23808016 CIRCULAR               4.0000       0.0000       0.0000       0.0000        1
23809003-23809004 CIRCULAR               1.5000       0.0000       0.0000       0.0000        1
23809004-23809005 CIRCULAR               1.5000       0.0000       0.0000       0.0000        1
23809005-23809006 CIRCULAR               1.5000       0.0000       0.0000       0.0000        1
23809006-23809049 CIRCULAR               1.5000       0.0000       0.0000       0.0000        1
23809013-23809049 CIRCULAR               4.0000       0.0000       0.0000       0.0000        1
23809014-23809042 CIRCULAR               4.0000       0.0000       0.0000       0.0000        1
23809015-23809019 CIRCULAR               3.0000       0.0000       0.0000       0.0000        1
23809019-23809014 CIRCULAR               3.5000       0.0000       0.0000       0.0000        1
23809026-23808025 CIRCULAR               1.5000       0.0000       0.0000       0.0000        1
23809027-23809026 CIRCULAR               1.5000       0.0000       0.0000       0.0000        1
23809028-23809027 CIRCULAR               1.5000       0.0000       0.0000       0.0000        1
23809042-23809013 CIRCULAR               4.0000       0.0000       0.0000       0.0000        1
23809049-23809050 CIRCULAR               4.0000       0.0000       0.0000       0.0000        1
23809050-23809002 CIRCULAR               4.0000       0.0000       0.0000       0.0000        1
23809053-23809015 CIRCULAR               3.0000       0.0000       0.0000       0.0000        1
23810003-23810010 CIRCULAR               1.7500       0.0000       0.0000       0.0000        1
23810008-23807013 CIRCULAR               7.0000       0.0000       0.0000       0.0000        1
23810009-23810008 CIRCULAR               7.0000       0.0000       0.0000       0.0000        1
23810010-23810009 CIRCULAR               5.0000       0.0000       0.0000       0.0000        1
23810011-23810010 CIRCULAR               5.0000       0.0000       0.0000       0.0000        1
23810012-23810011 CIRCULAR               5.0000       0.0000       0.0000       0.0000        1
23810013-23810012 CIRCULAR               5.0000       0.0000       0.0000       0.0000        1
23810014-23810032 CIRCULAR               4.0000       0.0000       0.0000       0.0000        1
23810015-23810014 CIRCULAR               2.0000       0.0000       0.0000       0.0000        1
23810016-23810015 CIRCULAR               2.0000       0.0000       0.0000       0.0000        1
23810017-23810016 CIRCULAR               2.0000       0.0000       0.0000       0.0000        1
23810018-23810017 CIRCULAR               2.0000       0.0000       0.0000       0.0000        1
23810019-23810014 CIRCULAR               4.0000       0.0000       0.0000       0.0000        1
23810022-23810031 CIRCULAR               4.0000       0.0000       0.0000       0.0000        1
23810023-23810033 CIRCULAR               4.0000       0.0000       0.0000       0.0000        1
23810024-23810033 CIRCULAR               2.0000       0.0000       0.0000       0.0000        1
23810025-23810024 CIRCULAR               2.0000       0.0000       0.0000       0.0000        1
23810026-23810025 CIRCULAR               2.0000       0.0000       0.0000       0.0000        1
23810031-23810019 CIRCULAR               4.0000       0.0000       0.0000       0.0000        1
23810032-23810009 CIRCULAR               4.5000       0.0000       0.0000       0.0000        1
23810033-23810022 CIRCULAR               4.0000       0.0000       0.0000       0.0000        1
23811003-23810018 CIRCULAR               2.0000       0.0000       0.0000       0.0000        1
23811004-23811003 CIRCULAR               2.0000       0.0000       0.0000       0.0000        1
23811005-23811004 CIRCULAR               1.5000       0.0000       0.0000       0.0000        1
23811028-23815026 CIRCULAR               1.5000       0.0000       0.0000       0.0000        1
23811029-23811028 CIRCULAR               1.5000       0.0000       0.0000       0.0000        1
23814006-23814010 CIRCULAR               1.5000       0.0000       0.0000       0.0000        1
23814009-23815029 CIRCULAR               1.5000       0.0000       0.0000       0.0000        1
23814010-23814009 CIRCULAR               1.5000       0.0000       0.0000       0.0000        1
23815002-23815008 CIRCULAR               1.7500       0.0000       0.0000       0.0000        1
23815003-23815002 CIRCULAR               1.7500       0.0000       0.0000       0.0000        1
23815004-23815003 CIRCULAR               1.5000       0.0000       0.0000       0.0000        1
23815005-23815004 CIRCULAR               1.5000       0.0000       0.0000       0.0000        1
23815008-23815009 CIRCULAR               1.7500       0.0000       0.0000       0.0000        1
23815009-23815010 CIRCULAR               1.7500       0.0000       0.0000       0.0000        1
23815010-23810013 CIRCULAR               1.7500       0.0000       0.0000       0.0000        1
23815014-23810013 CIRCULAR               5.0000       0.0000       0.0000       0.0000        1
23815015-23815014 CIRCULAR               5.0000       0.0000       0.0000       0.0000        1
23815016-23815015 CIRCULAR               5.0000       0.0000       0.0000       0.0000        1
23815017-23815016 CIRCULAR               5.0000       0.0000       0.0000       0.0000        1
23815018-23815019 CIRCULAR               2.0000       0.0000       0.0000       0.0000        1
23815019-23815038 CIRCULAR               2.0000       0.0000       0.0000       0.0000        1
23815020-23815038 CIRCULAR               3.5000       0.0000       0.0000       0.0000        1
23815021-23815020 CIRCULAR               3.5000       0.0000       0.0000       0.0000        1
23815022-23815021 CIRCULAR               3.5000       0.0000       0.0000       0.0000        1
23815023-23815022 CIRCULAR               3.5000       0.0000       0.0000       0.0000        1
23815024-23815023 CIRCULAR               3.5000       0.0000       0.0000       0.0000        1
23815025-23810026 CIRCULAR               2.0000       0.0000       0.0000       0.0000        1
23815026-23815025 CIRCULAR               1.5000       0.0000       0.0000       0.0000        1
23815029-23815030 CIRCULAR               2.0000       0.0000       0.0000       0.0000        1
23815030-23815031 CIRCULAR               2.0000       0.0000       0.0000       0.0000        1
23815031-23815032 CIRCULAR               2.0000       0.0000       0.0000       0.0000        1
23815032-23815033 CIRCULAR               2.0000       0.0000       0.0000       0.0000        1
23815033-23815024 CIRCULAR               2.0000       0.0000       0.0000       0.0000        1
23815038-23810023 CIRCULAR               4.0000       0.0000       0.0000       0.0000        1
23816003-23809053 CIRCULAR               3.0000       0.0000       0.0000       0.0000        1
23816006-23816003 CIRCULAR               3.0000       0.0000       0.0000       0.0000        1
23816011-23816006 CIRCULAR               3.0000       0.0000       0.0000       0.0000        1
23816014-23816036 CIRCULAR               3.0000       0.0000       0.0000       0.0000        1
23816015-23816014 CIRCULAR               3.0000       0.0000       0.0000       0.0000        1
23816016-23816015 CIRCULAR               3.0000       0.0000       0.0000       0.0000        1
23816017-23816014 CIRCULAR               1.2500       0.0000       0.0000       0.0000        1
23816018-23816016 CIRCULAR               1.0000       0.0000       0.0000       0.0000        1
23816036-23816037 CIRCULAR               3.0000       0.0000       0.0000       0.0000        1
23816037-23816011 CIRCULAR               3.0000       0.0000       0.0000       0.0000        1
23916007-23916003 CIRCULAR               8.0000       0.0000       0.0000       0.0000        1
23916008-23916007 CIRCULAR               1.5000       0.0000       0.0000       0.0000        1
23916014-23916015 CIRCULAR               1.5000       0.0000       0.0000       0.0000        1
23916015-23916007 CIRCULAR               8.0000       0.0000       0.0000       0.0000        1
23916016-23916015 CIRCULAR               1.5000       0.0000       0.0000       0.0000        1
23916017-23916016 CIRCULAR               1.5000       0.0000       0.0000       0.0000        1
23916025-23916026 CIRCULAR               1.5000       0.0000       0.0000       0.0000        1
23916026-23916015 CIRCULAR               8.0000       0.0000       0.0000       0.0000        1
23916027-23916026 CIRCULAR               1.5000       0.0000       0.0000       0.0000        1

[REPORT]
;;Keyword          Value
DISABLED             NO
INPUT                YES
CONTINUITY           YES
FLOWSTATS            YES
CONTROLS             NO
AVERAGES             NO
SUBCATCHMENTS        ALL
NODES                ALL
LINKS                ALL

[INFLOWS]
;;Node             Constituent      TimeSeries       Type             Mfactor    Sfactor    Baseline   Pattern         
;;---------------- ---------------- ---------------- ---------------- ---------- ---------- ---------- ----------------
20704016         FLOW             INFLOW@20704016  FLOW                 1.0000     1.0000     0.0000                 
20712009         FLOW             INFLOW@20712009  FLOW                 1.0000     1.0000     0.0000                 
20712010         FLOW             INFLOW@20712010  FLOW                 1.0000     1.0000     0.0000                 
20712011         FLOW             INFLOW@20712011  FLOW                 1.0000     1.0000     0.0000                 
20713008         FLOW             INFLOW@20713008  FLOW                 1.0000     1.0000     0.0000                 
23701001         FLOW             INFLOW@23701001  FLOW                 1.0000     1.0000     0.0000                 
23701008         FLOW             INFLOW@23701008  FLOW                 1.0000     1.0000     0.0000                 
23701011         FLOW             INFLOW@23701011  FLOW                 1.0000     1.0000     0.0000                 
23701016         FLOW             INFLOW@23701016  FLOW                 1.0000     1.0000     0.0000                 
23701017         FLOW             INFLOW@23701017  FLOW                 1.0000     1.0000     0.0000                 
23701019         FLOW             INFLOW@23701019  FLOW                 1.0000     1.0000     0.0000                 
23701023         FLOW             INFLOW@23701023  FLOW                 1.0000     1.0000     0.0000                 
23701029         FLOW             INFLOW@23701029  FLOW                 1.0000     1.0000     0.0000                 
23701034         FLOW             INFLOW@23701034  FLOW                 1.0000     1.0000     0.0000                 
23701035         FLOW             INFLOW@23701035  FLOW                 1.0000     1.0000     0.0000                 
23702011         FLOW             INFLOW@23702011  FLOW                 1.0000     1.0000     0.0000                 
23702015         FLOW             INFLOW@23702015  FLOW                 1.0000     1.0000     0.0000                 
23702027         FLOW             INFLOW@23702027  FLOW                 1.0000     1.0000     0.0000                 
23702032         FLOW             INFLOW@23702032  FLOW                 1.0000     1.0000     0.0000                 
23702036         FLOW             INFLOW@23702036  FLOW                 1.0000     1.0000     0.0000                 
23702037         FLOW             INFLOW@23702037  FLOW                 1.0000     1.0000     0.0000                 
23702039         FLOW             INFLOW@23702039  FLOW                 1.0000     1.0000     0.0000                 
23702045         FLOW             INFLOW@23702045  FLOW                 1.0000     1.0000     0.0000                 
23703003         FLOW             INFLOW@23703003  FLOW                 1.0000     1.0000     0.0000                 
23707003         FLOW             INFLOW@23707003  FLOW                 1.0000     1.0000     0.0000                 
23707005         FLOW             INFLOW@23707005  FLOW                 1.0000     1.0000     0.0000                 
23707007         FLOW             INFLOW@23707007  FLOW                 1.0000     1.0000     0.0000                 
23707008         FLOW             INFLOW@23707008  FLOW                 1.0000     1.0000     0.0000                 
23707011         FLOW             INFLOW@23707011  FLOW                 1.0000     1.0000     0.0000                 
23707014         FLOW             INFLOW@23707014  FLOW                 1.0000     1.0000     0.0000                 
23707015         FLOW             INFLOW@23707015  FLOW                 1.0000     1.0000     0.0000                 
23708024         FLOW             INFLOW@23708024  FLOW                 1.0000     1.0000     0.0000                 
23708027         FLOW             INFLOW@23708027  FLOW                 1.0000     1.0000     0.0000                 
23708030         FLOW             INFLOW@23708030  FLOW                 1.0000     1.0000     0.0000                 
23801001         FLOW             INFLOW@23801001  FLOW                 1.0000     1.0000     0.0000                 
23801003         FLOW             INFLOW@23801003  FLOW                 1.0000     1.0000     0.0000                 
23801007         FLOW             INFLOW@23801007  FLOW                 1.0000     1.0000     0.0000                 
23801009         FLOW             INFLOW@23801009  FLOW                 1.0000     1.0000     0.0000                 
23801011         FLOW             INFLOW@23801011  FLOW                 1.0000     1.0000     0.0000                 
23801013         FLOW             INFLOW@23801013  FLOW                 1.0000     1.0000     0.0000                 
23801014         FLOW             INFLOW@23801014  FLOW                 1.0000     1.0000     0.0000                 
23801020         FLOW             INFLOW@23801020  FLOW                 1.0000     1.0000     0.0000                 
23801025         FLOW             INFLOW@23801025  FLOW                 1.0000     1.0000     0.0000                 
23801026         FLOW             INFLOW@23801026  FLOW                 1.0000     1.0000     0.0000                 
23801029         FLOW             INFLOW@23801029  FLOW                 1.0000     1.0000     0.0000                 
23801032         FLOW             INFLOW@23801032  FLOW                 1.0000     1.0000     0.0000                 
23802012         FLOW             INFLOW@23802012  FLOW                 1.0000     1.0000     0.0000                 
23807004         FLOW             INFLOW@23807004  FLOW                 1.0000     1.0000     0.0000                 
23807013         FLOW             INFLOW@23807013  FLOW                 1.0000     1.0000     0.0000                 
23807017         FLOW             INFLOW@23807017  FLOW                 1.0000     1.0000     0.0000                 
23807018         FLOW             INFLOW@23807018  FLOW                 1.0000     1.0000     0.0000                 
23807020         FLOW             INFLOW@23807020  FLOW                 1.0000     1.0000     0.0000                 
23807028         FLOW             INFLOW@23807028  FLOW                 1.0000     1.0000     0.0000                 
23807031         FLOW             INFLOW@23807031  FLOW                 1.0000     1.0000     0.0000                 
23808005         FLOW             INFLOW@23808005  FLOW                 1.0000     1.0000     0.0000                 
23808012         FLOW             INFLOW@23808012  FLOW                 1.0000     1.0000     0.0000                 
23808013         FLOW             INFLOW@23808013  FLOW                 1.0000     1.0000     0.0000                 
23808016         FLOW             INFLOW@23808016  FLOW                 1.0000     1.0000     0.0000                 
23808019         FLOW             INFLOW@23808019  FLOW                 1.0000     1.0000     0.0000                 
23808024         FLOW             INFLOW@23808024  FLOW                 1.0000     1.0000     0.0000                 
23808025         FLOW             INFLOW@23808025  FLOW                 1.0000     1.0000     0.0000                 
23808030         FLOW             INFLOW@23808030  FLOW                 1.0000     1.0000     0.0000                 
23808032         FLOW             INFLOW@23808032  FLOW                 1.0000     1.0000     0.0000                 
23809003         FLOW             INFLOW@23809003  FLOW                 1.0000     1.0000     0.0000                 
23809004         FLOW             INFLOW@23809004  FLOW                 1.0000     1.0000     0.0000                 
23809005         FLOW             INFLOW@23809005  FLOW                 1.0000     1.0000     0.0000                 
23809014         FLOW             INFLOW@23809014  FLOW                 1.0000     1.0000     0.0000                 
23809015         FLOW             INFLOW@23809015  FLOW                 1.0000     1.0000     0.0000                 
23809019         FLOW             INFLOW@23809019  FLOW                 1.0000     1.0000     0.0000                 
23809026         FLOW             INFLOW@23809026  FLOW                 1.0000     1.0000     0.0000                 
23809027         FLOW             INFLOW@23809027  FLOW                 1.0000     1.0000     0.0000                 
23809028         FLOW             INFLOW@23809028  FLOW                 1.0000     1.0000     0.0000                 
23809049         FLOW             INFLOW@23809049  FLOW                 1.0000     1.0000     0.0000                 
23809053         FLOW             INFLOW@23809053  FLOW                 1.0000     1.0000     0.0000                 
23810003         FLOW             INFLOW@23810003  FLOW                 1.0000     1.0000     0.0000                 
23810009         FLOW             INFLOW@23810009  FLOW                 1.0000     1.0000     0.0000                 
23810011         FLOW             INFLOW@23810011  FLOW                 1.0000     1.0000     0.0000                 
23810012         FLOW             INFLOW@23810012  FLOW                 1.0000     1.0000     0.0000                 
23810014         FLOW             INFLOW@23810014  FLOW                 1.0000     1.0000     0.0000                 
23810016         FLOW             INFLOW@23810016  FLOW                 1.0000     1.0000     0.0000                 
23810019         FLOW             INFLOW@23810019  FLOW                 1.0000     1.0000     0.0000                 
23810026         FLOW             INFLOW@23810026  FLOW                 1.0000     1.0000     0.0000                 
23811003         FLOW             INFLOW@23811003  FLOW                 1.0000     1.0000     0.0000                 
23811005         FLOW             INFLOW@23811005  FLOW                 1.0000     1.0000     0.0000                 
23811028         FLOW             INFLOW@23811028  FLOW                 1.0000     1.0000     0.0000                 
23811029         FLOW             INFLOW@23811029  FLOW                 1.0000     1.0000     0.0000                 
23814006         FLOW             INFLOW@23814006  FLOW                 1.0000     1.0000     0.0000                 
23814009         FLOW             INFLOW@23814009  FLOW                 1.0000     1.0000     0.0000                 
23815002         FLOW             INFLOW@23815002  FLOW                 1.0000     1.0000     0.0000                 
23815003         FLOW             INFLOW@23815003  FLOW                 1.0000     1.0000     0.0000                 
23815004         FLOW             INFLOW@23815004  FLOW                 1.0000     1.0000     0.0000                 
23815005         FLOW             INFLOW@23815005  FLOW                 1.0000     1.0000     0.0000                 
23815009         FLOW             INFLOW@23815009  FLOW                 1.0000     1.0000     0.0000                 
23815014         FLOW             INFLOW@23815014  FLOW                 1.0000     1.0000     0.0000                 
23815015         FLOW             INFLOW@23815015  FLOW                 1.0000     1.0000     0.0000                 
23815016         FLOW             INFLOW@23815016  FLOW                 1.0000     1.0000     0.0000                 
23815018         FLOW             INFLOW@23815018  FLOW                 1.0000     1.0000     0.0000                 
23815021         FLOW             INFLOW@23815021  FLOW                 1.0000     1.0000     0.0000                 
23815023         FLOW             INFLOW@23815023  FLOW                 1.0000     1.0000     0.0000                 
23815025         FLOW             INFLOW@23815025  FLOW                 1.0000     1.0000     0.0000                 
23815030         FLOW             INFLOW@23815030  FLOW                 1.0000     1.0000     0.0000                 
23815032         FLOW             INFLOW@23815032  FLOW                 1.0000     1.0000     0.0000                 
23816006         FLOW             INFLOW@23816006  FLOW                 1.0000     1.0000     0.0000                 
23816037         FLOW             INFLOW@23816037  FLOW                 1.0000     1.0000     0.0000                 
23916008         FLOW             INFLOW@23916008  FLOW                 1.0000     1.0000     0.0000                 
23916014         FLOW             INFLOW@23916014  FLOW                 1.0000     1.0000     0.0000                 
23916015         FLOW             INFLOW@23916015  FLOW                 1.0000     1.0000     0.0000                 
23916017         FLOW             INFLOW@23916017  FLOW                 1.0000     1.0000     0.0000                 
23916025         FLOW             INFLOW@23916025  FLOW                 1.0000     1.0000     0.0000                 
23916026         FLOW             INFLOW@23916026  FLOW                 1.0000     1.0000     0.0000                 
23916027         FLOW             INFLOW@23916027  FLOW                 1.0000     1.0000     0.0000                 
23916003         FLOW             INFLOW@23916003  FLOW                 1.0000     1.0000     0.0000                 

[TIMESERIES]
;;Name             Date/Time            Value       
;;---------------- -------------------- ------------
INFLOW@23708030  0:00     0.083730
INFLOW@23708030  0:60     0.081680
INFLOW@23708030  2:00     0.078620
INFLOW@23708030  3:00     0.078620
INFLOW@23708030  3:60     0.078620
INFLOW@23708030  5:00     0.080660
INFLOW@23708030  6:00     0.097000
INFLOW@23708030  6:60     0.142940
INFLOW@23708030  8:00     0.132730
INFLOW@23708030  9:00     0.117420
INFLOW@23708030  9:60     0.111290
INFLOW@23708030  11:00     0.113340
INFLOW@23708030  12:00     0.105170
INFLOW@23708030  12:60     0.101080
INFLOW@23708030  14:00     0.103120
INFLOW@23708030  15:00     0.112310
INFLOW@23708030  15:60     0.094960
INFLOW@23708030  17:00     0.101080
INFLOW@23708030  18:00     0.107210
INFLOW@23708030  18:60     0.109250
INFLOW@23708030  20:00     0.110270
INFLOW@23708030  21:00     0.106190
INFLOW@23708030  21:60     0.092910
INFLOW@23708030  23:00     0.093940
INFLOW@23708030  24:00     0.083730
INFLOW@23708027  0:00     0.022410
INFLOW@23708027  0:60     0.021860
INFLOW@23708027  2:00     0.021040
INFLOW@23708027  3:00     0.021040
INFLOW@23708027  3:60     0.021040
INFLOW@23708027  5:00     0.021590
INFLOW@23708027  6:00     0.025960
INFLOW@23708027  6:60     0.038260
INFLOW@23708027  8:00     0.035530
INFLOW@23708027  9:00     0.031430
INFLOW@23708027  9:60     0.029790
INFLOW@23708027  11:00     0.030340
INFLOW@23708027  12:00     0.028150
INFLOW@23708027  12:60     0.027060
INFLOW@23708027  14:00     0.027600
INFLOW@23708027  15:00     0.030060
INFLOW@23708027  15:60     0.025420
INFLOW@23708027  17:00     0.027060
INFLOW@23708027  18:00     0.028700
INFLOW@23708027  18:60     0.029240
INFLOW@23708027  20:00     0.029520
INFLOW@23708027  21:00     0.028420
INFLOW@23708027  21:60     0.024870
INFLOW@23708027  23:00     0.025140
INFLOW@23708027  24:00     0.022410
INFLOW@23708024  0:00     0.001920
INFLOW@23708024  0:60     0.001870
INFLOW@23708024  2:00     0.001800
INFLOW@23708024  3:00     0.001800
INFLOW@23708024  3:60     0.001800
INFLOW@23708024  5:00     0.001850
INFLOW@23708024  6:00     0.002220
INFLOW@23708024  6:60     0.003280
INFLOW@23708024  8:00     0.003040
INFLOW@23708024  9:00     0.002690
INFLOW@23708024  9:60     0.002550
INFLOW@23708024  11:00     0.002600
INFLOW@23708024  12:00     0.002410
INFLOW@23708024  12:60     0.002320
INFLOW@23708024  14:00     0.002360
INFLOW@23708024  15:00     0.002580
INFLOW@23708024  15:60     0.002180
INFLOW@23708024  17:00     0.002320
INFLOW@23708024  18:00     0.002460
INFLOW@23708024  18:60     0.002510
INFLOW@23708024  20:00     0.002530
INFLOW@23708024  21:00     0.002440
INFLOW@23708024  21:60     0.002130
INFLOW@23708024  23:00     0.002150
INFLOW@23708024  24:00     0.001920
INFLOW@23707008  0:00     0.061380
INFLOW@23707008  0:60     0.059880
INFLOW@23707008  2:00     0.057640
INFLOW@23707008  3:00     0.057640
INFLOW@23707008  3:60     0.057640
INFLOW@23707008  5:00     0.059140
INFLOW@23707008  6:00     0.071110
INFLOW@23707008  6:60     0.104800
INFLOW@23707008  8:00     0.097310
INFLOW@23707008  9:00     0.086080
INFLOW@23707008  9:60     0.081590
INFLOW@23707008  11:00     0.083090
INFLOW@23707008  12:00     0.077100
INFLOW@23707008  12:60     0.074110
INFLOW@23707008  14:00     0.075600
INFLOW@23707008  15:00     0.082340
INFLOW@23707008  15:60     0.069620
INFLOW@23707008  17:00     0.074110
INFLOW@23707008  18:00     0.078600
INFLOW@23707008  18:60     0.080100
INFLOW@23707008  20:00     0.080840
INFLOW@23707008  21:00     0.077850
INFLOW@23707008  21:60     0.068120
INFLOW@23707008  23:00     0.068870
INFLOW@23707008  24:00     0.061380
INFLOW@23707011  0:00     0.052070
INFLOW@23707011  0:60     0.050800
INFLOW@23707011  2:00     0.048900
INFLOW@23707011  3:00     0.048900
INFLOW@23707011  3:60     0.048900
INFLOW@23707011  5:00     0.050170
INFLOW@23707011  6:00     0.060330
INFLOW@23707011  6:60     0.088910
INFLOW@23707011  8:00     0.082560
INFLOW@23707011  9:00     0.073030
INFLOW@23707011  9:60     0.069220
INFLOW@23707011  11:00     0.070490
INFLOW@23707011  12:00     0.065410
INFLOW@23707011  12:60     0.062870
INFLOW@23707011  14:00     0.064140
INFLOW@23707011  15:00     0.069850
INFLOW@23707011  15:60     0.059060
INFLOW@23707011  17:00     0.062870
INFLOW@23707011  18:00     0.066680
INFLOW@23707011  18:60     0.067950
INFLOW@23707011  20:00     0.068580
INFLOW@23707011  21:00     0.066040
INFLOW@23707011  21:60     0.057790
INFLOW@23707011  23:00     0.058420
INFLOW@23707011  24:00     0.052070
INFLOW@23707015  0:00     0.060420
INFLOW@23707015  0:60     0.058950
INFLOW@23707015  2:00     0.056740
INFLOW@23707015  3:00     0.056740
INFLOW@23707015  3:60     0.056740
INFLOW@23707015  5:00     0.058210
INFLOW@23707015  6:00     0.070000
INFLOW@23707015  6:60     0.103160
INFLOW@23707015  8:00     0.095800
INFLOW@23707015  9:00     0.084740
INFLOW@23707015  9:60     0.080320
INFLOW@23707015  11:00     0.081790
INFLOW@23707015  12:00     0.075900
INFLOW@23707015  12:60     0.072950
INFLOW@23707015  14:00     0.074430
INFLOW@23707015  15:00     0.081060
INFLOW@23707015  15:60     0.068530
INFLOW@23707015  17:00     0.072950
INFLOW@23707015  18:00     0.077370
INFLOW@23707015  18:60     0.078850
INFLOW@23707015  20:00     0.079580
INFLOW@23707015  21:00     0.076640
INFLOW@23707015  21:60     0.067060
INFLOW@23707015  23:00     0.067790
INFLOW@23707015  24:00     0.060420
INFLOW@23702032  0:00     0.160290
INFLOW@23702032  0:60     0.156380
INFLOW@23702032  2:00     0.150520
INFLOW@23702032  3:00     0.150520
INFLOW@23702032  3:60     0.150520
INFLOW@23702032  5:00     0.154430
INFLOW@23702032  6:00     0.185700
INFLOW@23702032  6:60     0.273660
INFLOW@23702032  8:00     0.254120
INFLOW@23702032  9:00     0.224800
INFLOW@23702032  9:60     0.213070
INFLOW@23702032  11:00     0.216980
INFLOW@23702032  12:00     0.201340
INFLOW@23702032  12:60     0.193520
INFLOW@23702032  14:00     0.197430
INFLOW@23702032  15:00     0.215020
INFLOW@23702032  15:60     0.181790
INFLOW@23702032  17:00     0.193520
INFLOW@23702032  18:00     0.205250
INFLOW@23702032  18:60     0.209160
INFLOW@23702032  20:00     0.211110
INFLOW@23702032  21:00     0.203290
INFLOW@23702032  21:60     0.177880
INFLOW@23702032  23:00     0.179840
INFLOW@23702032  24:00     0.160290
INFLOW@23707014  0:00     0.018090
INFLOW@23707014  0:60     0.017650
INFLOW@23707014  2:00     0.016990
INFLOW@23707014  3:00     0.016990
INFLOW@23707014  3:60     0.016990
INFLOW@23707014  5:00     0.017430
INFLOW@23707014  6:00     0.020960
INFLOW@23707014  6:60     0.030880
INFLOW@23707014  8:00     0.028680
INFLOW@23707014  9:00     0.025370
INFLOW@23707014  9:60     0.024040
INFLOW@23707014  11:00     0.024490
INFLOW@23707014  12:00     0.022720
INFLOW@23707014  12:60     0.021840
INFLOW@23707014  14:00     0.022280
INFLOW@23707014  15:00     0.024270
INFLOW@23707014  15:60     0.020520
INFLOW@23707014  17:00     0.021840
INFLOW@23707014  18:00     0.023160
INFLOW@23707014  18:60     0.023600
INFLOW@23707014  20:00     0.023820
INFLOW@23707014  21:00     0.022940
INFLOW@23707014  21:60     0.020070
INFLOW@23707014  23:00     0.020290
INFLOW@23707014  24:00     0.018090
INFLOW@23702039  0:00     0.075850
INFLOW@23702039  0:60     0.074000
INFLOW@23702039  2:00     0.071220
INFLOW@23702039  3:00     0.071220
INFLOW@23702039  3:60     0.071220
INFLOW@23702039  5:00     0.073070
INFLOW@23702039  6:00     0.087870
INFLOW@23702039  6:60     0.129500
INFLOW@23702039  8:00     0.120250
INFLOW@23702039  9:00     0.106370
INFLOW@23702039  9:60     0.100820
INFLOW@23702039  11:00     0.102670
INFLOW@23702039  12:00     0.095270
INFLOW@23702039  12:60     0.091570
INFLOW@23702039  14:00     0.093420
INFLOW@23702039  15:00     0.101750
INFLOW@23702039  15:60     0.086020
INFLOW@23702039  17:00     0.091570
INFLOW@23702039  18:00     0.097120
INFLOW@23702039  18:60     0.098970
INFLOW@23702039  20:00     0.099900
INFLOW@23702039  21:00     0.096200
INFLOW@23702039  21:60     0.084170
INFLOW@23702039  23:00     0.085100
INFLOW@23702039  24:00     0.075850
INFLOW@23707007  0:00     0.016490
INFLOW@23707007  0:60     0.016080
INFLOW@23707007  2:00     0.015480
INFLOW@23707007  3:00     0.015480
INFLOW@23707007  3:60     0.015480
INFLOW@23707007  5:00     0.015880
INFLOW@23707007  6:00     0.019100
INFLOW@23707007  6:60     0.028150
INFLOW@23707007  8:00     0.026140
INFLOW@23707007  9:00     0.023120
INFLOW@23707007  9:60     0.021910
INFLOW@23707007  11:00     0.022320
INFLOW@23707007  12:00     0.020710
INFLOW@23707007  12:60     0.019900
INFLOW@23707007  14:00     0.020310
INFLOW@23707007  15:00     0.022120
INFLOW@23707007  15:60     0.018700
INFLOW@23707007  17:00     0.019900
INFLOW@23707007  18:00     0.021110
INFLOW@23707007  18:60     0.021510
INFLOW@23707007  20:00     0.021710
INFLOW@23707007  21:00     0.020910
INFLOW@23707007  21:60     0.018300
INFLOW@23707007  23:00     0.018500
INFLOW@23707007  24:00     0.016490
INFLOW@23707003  0:00     0.009690
INFLOW@23707003  0:60     0.009450
INFLOW@23707003  2:00     0.009100
INFLOW@23707003  3:00     0.009100
INFLOW@23707003  3:60     0.009100
INFLOW@23707003  5:00     0.009340
INFLOW@23707003  6:00     0.011230
INFLOW@23707003  6:60     0.016550
INFLOW@23707003  8:00     0.015360
INFLOW@23707003  9:00     0.013590
INFLOW@23707003  9:60     0.012880
INFLOW@23707003  11:00     0.013120
INFLOW@23707003  12:00     0.012170
INFLOW@23707003  12:60     0.011700
INFLOW@23707003  14:00     0.011940
INFLOW@23707003  15:00     0.013000
INFLOW@23707003  15:60     0.010990
INFLOW@23707003  17:00     0.011700
INFLOW@23707003  18:00     0.012410
INFLOW@23707003  18:60     0.012650
INFLOW@23707003  20:00     0.012760
INFLOW@23707003  21:00     0.012290
INFLOW@23707003  21:60     0.010750
INFLOW@23707003  23:00     0.010870
INFLOW@23707003  24:00     0.009690
INFLOW@23707005  0:00     0.026930
INFLOW@23707005  0:60     0.026270
INFLOW@23707005  2:00     0.025290
INFLOW@23707005  3:00     0.025290
INFLOW@23707005  3:60     0.025290
INFLOW@23707005  5:00     0.025950
INFLOW@23707005  6:00     0.031200
INFLOW@23707005  6:60     0.045980
INFLOW@23707005  8:00     0.042700
INFLOW@23707005  9:00     0.037770
INFLOW@23707005  9:60     0.035800
INFLOW@23707005  11:00     0.036460
INFLOW@23707005  12:00     0.033830
INFLOW@23707005  12:60     0.032510
INFLOW@23707005  14:00     0.033170
INFLOW@23707005  15:00     0.036130
INFLOW@23707005  15:60     0.030540
INFLOW@23707005  17:00     0.032510
INFLOW@23707005  18:00     0.034490
INFLOW@23707005  18:60     0.035140
INFLOW@23707005  20:00     0.035470
INFLOW@23707005  21:00     0.034160
INFLOW@23707005  21:60     0.029890
INFLOW@23707005  23:00     0.030220
INFLOW@23707005  24:00     0.026930
INFLOW@23702037  0:00     0.044030
INFLOW@23702037  0:60     0.042960
INFLOW@23702037  2:00     0.041350
INFLOW@23702037  3:00     0.041350
INFLOW@23702037  3:60     0.041350
INFLOW@23702037  5:00     0.042420
INFLOW@23702037  6:00     0.051010
INFLOW@23702037  6:60     0.075180
INFLOW@23702037  8:00     0.069810
INFLOW@23702037  9:00     0.061750
INFLOW@23702037  9:60     0.058530
INFLOW@23702037  11:00     0.059600
INFLOW@23702037  12:00     0.055310
INFLOW@23702037  12:60     0.053160
INFLOW@23702037  14:00     0.054240
INFLOW@23702037  15:00     0.059070
INFLOW@23702037  15:60     0.049940
INFLOW@23702037  17:00     0.053160
INFLOW@23702037  18:00     0.056380
INFLOW@23702037  18:60     0.057460
INFLOW@23702037  20:00     0.057990
INFLOW@23702037  21:00     0.055850
INFLOW@23702037  21:60     0.048870
INFLOW@23702037  23:00     0.049400
INFLOW@23702037  24:00     0.044030
INFLOW@23702036  0:00     0.006590
INFLOW@23702036  0:60     0.006430
INFLOW@23702036  2:00     0.006190
INFLOW@23702036  3:00     0.006190
INFLOW@23702036  3:60     0.006190
INFLOW@23702036  5:00     0.006350
INFLOW@23702036  6:00     0.007640
INFLOW@23702036  6:60     0.011260
INFLOW@23702036  8:00     0.010450
INFLOW@23702036  9:00     0.009250
INFLOW@23702036  9:60     0.008760
INFLOW@23702036  11:00     0.008930
INFLOW@23702036  12:00     0.008280
INFLOW@23702036  12:60     0.007960
INFLOW@23702036  14:00     0.008120
INFLOW@23702036  15:00     0.008850
INFLOW@23702036  15:60     0.007480
INFLOW@23702036  17:00     0.007960
INFLOW@23702036  18:00     0.008440
INFLOW@23702036  18:60     0.008600
INFLOW@23702036  20:00     0.008680
INFLOW@23702036  21:00     0.008360
INFLOW@23702036  21:60     0.007320
INFLOW@23702036  23:00     0.007400
INFLOW@23702036  24:00     0.006590
INFLOW@23701029  0:00     0.352830
INFLOW@23701029  0:60     0.344230
INFLOW@23701029  2:00     0.331320
INFLOW@23701029  3:00     0.331320
INFLOW@23701029  3:60     0.331320
INFLOW@23701029  5:00     0.339930
INFLOW@23701029  6:00     0.408770
INFLOW@23701029  6:60     0.602400
INFLOW@23701029  8:00     0.559370
INFLOW@23701029  9:00     0.494830
INFLOW@23701029  9:60     0.469010
INFLOW@23701029  11:00     0.477620
INFLOW@23701029  12:00     0.443190
INFLOW@23701029  12:60     0.425980
INFLOW@23701029  14:00     0.434590
INFLOW@23701029  15:00     0.473310
INFLOW@23701029  15:60     0.400170
INFLOW@23701029  17:00     0.425980
INFLOW@23701029  18:00     0.451800
INFLOW@23701029  18:60     0.460410
INFLOW@23701029  20:00     0.464710
INFLOW@23701029  21:00     0.447500
INFLOW@23701029  21:60     0.391560
INFLOW@23701029  23:00     0.395860
INFLOW@23701029  24:00     0.352830
INFLOW@23701011  0:00     0.013870
INFLOW@23701011  0:60     0.013530
INFLOW@23701011  2:00     0.013020
INFLOW@23701011  3:00     0.013020
INFLOW@23701011  3:60     0.013020
INFLOW@23701011  5:00     0.013360
INFLOW@23701011  6:00     0.016070
INFLOW@23701011  6:60     0.023680
INFLOW@23701011  8:00     0.021990
INFLOW@23701011  9:00     0.019450
INFLOW@23701011  9:60     0.018440
INFLOW@23701011  11:00     0.018770
INFLOW@23701011  12:00     0.017420
INFLOW@23701011  12:60     0.016740
INFLOW@23701011  14:00     0.017080
INFLOW@23701011  15:00     0.018600
INFLOW@23701011  15:60     0.015730
INFLOW@23701011  17:00     0.016740
INFLOW@23701011  18:00     0.017760
INFLOW@23701011  18:60     0.018100
INFLOW@23701011  20:00     0.018270
INFLOW@23701011  21:00     0.017590
INFLOW@23701011  21:60     0.015390
INFLOW@23701011  23:00     0.015560
INFLOW@23701011  24:00     0.013870
INFLOW@23701016  0:00     0.031220
INFLOW@23701016  0:60     0.030460
INFLOW@23701016  2:00     0.029320
INFLOW@23701016  3:00     0.029320
INFLOW@23701016  3:60     0.029320
INFLOW@23701016  5:00     0.030080
INFLOW@23701016  6:00     0.036170
INFLOW@23701016  6:60     0.053310
INFLOW@23701016  8:00     0.049500
INFLOW@23701016  9:00     0.043790
INFLOW@23701016  9:60     0.041500
INFLOW@23701016  11:00     0.042260
INFLOW@23701016  12:00     0.039220
INFLOW@23701016  12:60     0.037700
INFLOW@23701016  14:00     0.038460
INFLOW@23701016  15:00     0.041880
INFLOW@23701016  15:60     0.035410
INFLOW@23701016  17:00     0.037700
INFLOW@23701016  18:00     0.039980
INFLOW@23701016  18:60     0.040740
INFLOW@23701016  20:00     0.041120
INFLOW@23701016  21:00     0.039600
INFLOW@23701016  21:60     0.034650
INFLOW@23701016  23:00     0.035030
INFLOW@23701016  24:00     0.031220
INFLOW@23701023  0:00     0.029700
INFLOW@23701023  0:60     0.028970
INFLOW@23701023  2:00     0.027890
INFLOW@23701023  3:00     0.027890
INFLOW@23701023  3:60     0.027890
INFLOW@23701023  5:00     0.028610
INFLOW@23701023  6:00     0.034410
INFLOW@23701023  6:60     0.050710
INFLOW@23701023  8:00     0.047080
INFLOW@23701023  9:00     0.041650
INFLOW@23701023  9:60     0.039480
INFLOW@23701023  11:00     0.040200
INFLOW@23701023  12:00     0.037300
INFLOW@23701023  12:60     0.035860
INFLOW@23701023  14:00     0.036580
INFLOW@23701023  15:00     0.039840
INFLOW@23701023  15:60     0.033680
INFLOW@23701023  17:00     0.035860
INFLOW@23701023  18:00     0.038030
INFLOW@23701023  18:60     0.038750
INFLOW@23701023  20:00     0.039120
INFLOW@23701023  21:00     0.037670
INFLOW@23701023  21:60     0.032960
INFLOW@23701023  23:00     0.033320
INFLOW@23701023  24:00     0.029700
INFLOW@23701008  0:00     0.033780
INFLOW@23701008  0:60     0.032950
INFLOW@23701008  2:00     0.031720
INFLOW@23701008  3:00     0.031720
INFLOW@23701008  3:60     0.031720
INFLOW@23701008  5:00     0.032540
INFLOW@23701008  6:00     0.039130
INFLOW@23701008  6:60     0.057660
INFLOW@23701008  8:00     0.053550
INFLOW@23701008  9:00     0.047370
INFLOW@23701008  9:60     0.044900
INFLOW@23701008  11:00     0.045720
INFLOW@23701008  12:00     0.042420
INFLOW@23701008  12:60     0.040780
INFLOW@23701008  14:00     0.041600
INFLOW@23701008  15:00     0.045310
INFLOW@23701008  15:60     0.038310
INFLOW@23701008  17:00     0.040780
INFLOW@23701008  18:00     0.043250
INFLOW@23701008  18:60     0.044070
INFLOW@23701008  20:00     0.044480
INFLOW@23701008  21:00     0.042840
INFLOW@23701008  21:60     0.037480
INFLOW@23701008  23:00     0.037890
INFLOW@23701008  24:00     0.033780
INFLOW@23701035  0:00     0.073000
INFLOW@23701035  0:60     0.071220
INFLOW@23701035  2:00     0.068550
INFLOW@23701035  3:00     0.068550
INFLOW@23701035  3:60     0.068550
INFLOW@23701035  5:00     0.070330
INFLOW@23701035  6:00     0.084570
INFLOW@23701035  6:60     0.124630
INFLOW@23701035  8:00     0.115730
INFLOW@23701035  9:00     0.102380
INFLOW@23701035  9:60     0.097040
INFLOW@23701035  11:00     0.098820
INFLOW@23701035  12:00     0.091700
INFLOW@23701035  12:60     0.088130
INFLOW@23701035  14:00     0.089920
INFLOW@23701035  15:00     0.097930
INFLOW@23701035  15:60     0.082790
INFLOW@23701035  17:00     0.088130
INFLOW@23701035  18:00     0.093480
INFLOW@23701035  18:60     0.095260
INFLOW@23701035  20:00     0.096150
INFLOW@23701035  21:00     0.092590
INFLOW@23701035  21:60     0.081010
INFLOW@23701035  23:00     0.081900
INFLOW@23701035  24:00     0.073000
INFLOW@23701019  0:00     0.004870
INFLOW@23701019  0:60     0.004750
INFLOW@23701019  2:00     0.004570
INFLOW@23701019  3:00     0.004570
INFLOW@23701019  3:60     0.004570
INFLOW@23701019  5:00     0.004690
INFLOW@23701019  6:00     0.005640
INFLOW@23701019  6:60     0.008310
INFLOW@23701019  8:00     0.007720
INFLOW@23701019  9:00     0.006830
INFLOW@23701019  9:60     0.006470
INFLOW@23701019  11:00     0.006590
INFLOW@23701019  12:00     0.006110
INFLOW@23701019  12:60     0.005880
INFLOW@23701019  14:00     0.005990
INFLOW@23701019  15:00     0.006530
INFLOW@23701019  15:60     0.005520
INFLOW@23701019  17:00     0.005880
INFLOW@23701019  18:00     0.006230
INFLOW@23701019  18:60     0.006350
INFLOW@23701019  20:00     0.006410
INFLOW@23701019  21:00     0.006170
INFLOW@23701019  21:60     0.005400
INFLOW@23701019  23:00     0.005460
INFLOW@23701019  24:00     0.004870
INFLOW@23701001  0:00     0.021930
INFLOW@23701001  0:60     0.021390
INFLOW@23701001  2:00     0.020590
INFLOW@23701001  3:00     0.020590
INFLOW@23701001  3:60     0.020590
INFLOW@23701001  5:00     0.021130
INFLOW@23701001  6:00     0.025400
INFLOW@23701001  6:60     0.037440
INFLOW@23701001  8:00     0.034760
INFLOW@23701001  9:00     0.030750
INFLOW@23701001  9:60     0.029150
INFLOW@23701001  11:00     0.029680
INFLOW@23701001  12:00     0.027540
INFLOW@23701001  12:60     0.026470
INFLOW@23701001  14:00     0.027010
INFLOW@23701001  15:00     0.029420
INFLOW@23701001  15:60     0.024870
INFLOW@23701001  17:00     0.026470
INFLOW@23701001  18:00     0.028080
INFLOW@23701001  18:60     0.028610
INFLOW@23701001  20:00     0.028880
INFLOW@23701001  21:00     0.027810
INFLOW@23701001  21:60     0.024330
INFLOW@23701001  23:00     0.024600
INFLOW@23701001  24:00     0.021930
INFLOW@23701034  0:00     0.066930
INFLOW@23701034  0:60     0.065300
INFLOW@23701034  2:00     0.062850
INFLOW@23701034  3:00     0.062850
INFLOW@23701034  3:60     0.062850
INFLOW@23701034  5:00     0.064490
INFLOW@23701034  6:00     0.077550
INFLOW@23701034  6:60     0.114280
INFLOW@23701034  8:00     0.106110
INFLOW@23701034  9:00     0.093870
INFLOW@23701034  9:60     0.088970
INFLOW@23701034  11:00     0.090610
INFLOW@23701034  12:00     0.084080
INFLOW@23701034  12:60     0.080810
INFLOW@23701034  14:00     0.082440
INFLOW@23701034  15:00     0.089790
INFLOW@23701034  15:60     0.075910
INFLOW@23701034  17:00     0.080810
INFLOW@23701034  18:00     0.085710
INFLOW@23701034  18:60     0.087340
INFLOW@23701034  20:00     0.088160
INFLOW@23701034  21:00     0.084890
INFLOW@23701034  21:60     0.074280
INFLOW@23701034  23:00     0.075100
INFLOW@23701034  24:00     0.066930
INFLOW@20713008  0:00     0.074240
INFLOW@20713008  0:60     0.072430
INFLOW@20713008  2:00     0.069720
INFLOW@20713008  3:00     0.069720
INFLOW@20713008  3:60     0.069720
INFLOW@20713008  5:00     0.071530
INFLOW@20713008  6:00     0.086020
INFLOW@20713008  6:60     0.126760
INFLOW@20713008  8:00     0.117700
INFLOW@20713008  9:00     0.104120
INFLOW@20713008  9:60     0.098690
INFLOW@20713008  11:00     0.100500
INFLOW@20713008  12:00     0.093260
INFLOW@20713008  12:60     0.089640
INFLOW@20713008  14:00     0.091450
INFLOW@20713008  15:00     0.099600
INFLOW@20713008  15:60     0.084200
INFLOW@20713008  17:00     0.089640
INFLOW@20713008  18:00     0.095070
INFLOW@20713008  18:60     0.096880
INFLOW@20713008  20:00     0.097790
INFLOW@20713008  21:00     0.094160
INFLOW@20713008  21:60     0.082390
INFLOW@20713008  23:00     0.083300
INFLOW@20713008  24:00     0.074240
INFLOW@23816037  0:00     0.003930
INFLOW@23816037  0:60     0.003830
INFLOW@23816037  2:00     0.003690
INFLOW@23816037  3:00     0.003690
INFLOW@23816037  3:60     0.003690
INFLOW@23816037  5:00     0.003780
INFLOW@23816037  6:00     0.004550
INFLOW@23816037  6:60     0.006710
INFLOW@23816037  8:00     0.006230
INFLOW@23816037  9:00     0.005510
INFLOW@23816037  9:60     0.005220
INFLOW@23816037  11:00     0.005320
INFLOW@23816037  12:00     0.004930
INFLOW@23816037  12:60     0.004740
INFLOW@23816037  14:00     0.004840
INFLOW@23816037  15:00     0.005270
INFLOW@23816037  15:60     0.004460
INFLOW@23816037  17:00     0.004740
INFLOW@23816037  18:00     0.005030
INFLOW@23816037  18:60     0.005130
INFLOW@23816037  20:00     0.005170
INFLOW@23816037  21:00     0.004980
INFLOW@23816037  21:60     0.004360
INFLOW@23816037  23:00     0.004410
INFLOW@23816037  24:00     0.003930
INFLOW@23816006  0:00     0.063810
INFLOW@23816006  0:60     0.062260
INFLOW@23816006  2:00     0.059920
INFLOW@23816006  3:00     0.059920
INFLOW@23816006  3:60     0.059920
INFLOW@23816006  5:00     0.061480
INFLOW@23816006  6:00     0.073930
INFLOW@23816006  6:60     0.108950
INFLOW@23816006  8:00     0.101170
INFLOW@23816006  9:00     0.089500
INFLOW@23816006  9:60     0.084830
INFLOW@23816006  11:00     0.086380
INFLOW@23816006  12:00     0.080160
INFLOW@23816006  12:60     0.077040
INFLOW@23816006  14:00     0.078600
INFLOW@23816006  15:00     0.085600
INFLOW@23816006  15:60     0.072380
INFLOW@23816006  17:00     0.077040
INFLOW@23816006  18:00     0.081710
INFLOW@23816006  18:60     0.083270
INFLOW@23816006  20:00     0.084050
INFLOW@23816006  21:00     0.080940
INFLOW@23816006  21:60     0.070820
INFLOW@23816006  23:00     0.071600
INFLOW@23816006  24:00     0.063810
INFLOW@23809053  0:00     0.024930
INFLOW@23809053  0:60     0.024330
INFLOW@23809053  2:00     0.023410
INFLOW@23809053  3:00     0.023410
INFLOW@23809053  3:60     0.023410
INFLOW@23809053  5:00     0.024020
INFLOW@23809053  6:00     0.028890
INFLOW@23809053  6:60     0.042570
INFLOW@23809053  8:00     0.039530
INFLOW@23809053  9:00     0.034970
INFLOW@23809053  9:60     0.033140
INFLOW@23809053  11:00     0.033750
INFLOW@23809053  12:00     0.031320
INFLOW@23809053  12:60     0.030100
INFLOW@23809053  14:00     0.030710
INFLOW@23809053  15:00     0.033450
INFLOW@23809053  15:60     0.028280
INFLOW@23809053  17:00     0.030100
INFLOW@23809053  18:00     0.031930
INFLOW@23809053  18:60     0.032540
INFLOW@23809053  20:00     0.032840
INFLOW@23809053  21:00     0.031620
INFLOW@23809053  21:60     0.027670
INFLOW@23809053  23:00     0.027980
INFLOW@23809053  24:00     0.024930
INFLOW@23809015  0:00     0.052130
INFLOW@23809015  0:60     0.050860
INFLOW@23809015  2:00     0.048950
INFLOW@23809015  3:00     0.048950
INFLOW@23809015  3:60     0.048950
INFLOW@23809015  5:00     0.050220
INFLOW@23809015  6:00     0.060390
INFLOW@23809015  6:60     0.089000
INFLOW@23809015  8:00     0.082640
INFLOW@23809015  9:00     0.073100
INFLOW@23809015  9:60     0.069290
INFLOW@23809015  11:00     0.070560
INFLOW@23809015  12:00     0.065480
INFLOW@23809015  12:60     0.062930
INFLOW@23809015  14:00     0.064200
INFLOW@23809015  15:00     0.069930
INFLOW@23809015  15:60     0.059120
INFLOW@23809015  17:00     0.062930
INFLOW@23809015  18:00     0.066750
INFLOW@23809015  18:60     0.068020
INFLOW@23809015  20:00     0.068650
INFLOW@23809015  21:00     0.066110
INFLOW@23809015  21:60     0.057850
INFLOW@23809015  23:00     0.058480
INFLOW@23809015  24:00     0.052130
INFLOW@23809019  0:00     0.012450
INFLOW@23809019  0:60     0.012140
INFLOW@23809019  2:00     0.011690
INFLOW@23809019  3:00     0.011690
INFLOW@23809019  3:60     0.011690
INFLOW@23809019  5:00     0.011990
INFLOW@23809019  6:00     0.014420
INFLOW@23809019  6:60     0.021250
INFLOW@23809019  8:00     0.019730
INFLOW@23809019  9:00     0.017450
INFLOW@23809019  9:60     0.016540
INFLOW@23809019  11:00     0.016850
INFLOW@23809019  12:00     0.015630
INFLOW@23809019  12:60     0.015030
INFLOW@23809019  14:00     0.015330
INFLOW@23809019  15:00     0.016690
INFLOW@23809019  15:60     0.014110
INFLOW@23809019  17:00     0.015030
INFLOW@23809019  18:00     0.015940
INFLOW@23809019  18:60     0.016240
INFLOW@23809019  20:00     0.016390
INFLOW@23809019  21:00     0.015780
INFLOW@23809019  21:60     0.013810
INFLOW@23809019  23:00     0.013960
INFLOW@23809019  24:00     0.012450
INFLOW@23809014  0:00     0.122810
INFLOW@23809014  0:60     0.119810
INFLOW@23809014  2:00     0.115320
INFLOW@23809014  3:00     0.115320
INFLOW@23809014  3:60     0.115320
INFLOW@23809014  5:00     0.118320
INFLOW@23809014  6:00     0.142280
INFLOW@23809014  6:60     0.209670
INFLOW@23809014  8:00     0.194700
INFLOW@23809014  9:00     0.172230
INFLOW@23809014  9:60     0.163250
INFLOW@23809014  11:00     0.166240
INFLOW@23809014  12:00     0.154260
INFLOW@23809014  12:60     0.148270
INFLOW@23809014  14:00     0.151260
INFLOW@23809014  15:00     0.164740
INFLOW@23809014  15:60     0.139280
INFLOW@23809014  17:00     0.148270
INFLOW@23809014  18:00     0.157260
INFLOW@23809014  18:60     0.160250
INFLOW@23809014  20:00     0.161750
INFLOW@23809014  21:00     0.155760
INFLOW@23809014  21:60     0.136290
INFLOW@23809014  23:00     0.137790
INFLOW@23809014  24:00     0.122810
INFLOW@23809004  0:00     0.007420
INFLOW@23809004  0:60     0.007240
INFLOW@23809004  2:00     0.006970
INFLOW@23809004  3:00     0.006970
INFLOW@23809004  3:60     0.006970
INFLOW@23809004  5:00     0.007150
INFLOW@23809004  6:00     0.008600
INFLOW@23809004  6:60     0.012670
INFLOW@23809004  8:00     0.011770
INFLOW@23809004  9:00     0.010410
INFLOW@23809004  9:60     0.009870
INFLOW@23809004  11:00     0.010050
INFLOW@23809004  12:00     0.009330
INFLOW@23809004  12:60     0.008960
INFLOW@23809004  14:00     0.009140
INFLOW@23809004  15:00     0.009960
INFLOW@23809004  15:60     0.008420
INFLOW@23809004  17:00     0.008960
INFLOW@23809004  18:00     0.009510
INFLOW@23809004  18:60     0.009690
INFLOW@23809004  20:00     0.009780
INFLOW@23809004  21:00     0.009420
INFLOW@23809004  21:60     0.008240
INFLOW@23809004  23:00     0.008330
INFLOW@23809004  24:00     0.007420
INFLOW@23809005  0:00     0.006510
INFLOW@23809005  0:60     0.006350
INFLOW@23809005  2:00     0.006110
INFLOW@23809005  3:00     0.006110
INFLOW@23809005  3:60     0.006110
INFLOW@23809005  5:00     0.006270
INFLOW@23809005  6:00     0.007540
INFLOW@23809005  6:60     0.011110
INFLOW@23809005  8:00     0.010320
INFLOW@23809005  9:00     0.009130
INFLOW@23809005  9:60     0.008650
INFLOW@23809005  11:00     0.008810
INFLOW@23809005  12:00     0.008180
INFLOW@23809005  12:60     0.007860
INFLOW@23809005  14:00     0.008020
INFLOW@23809005  15:00     0.008730
INFLOW@23809005  15:60     0.007380
INFLOW@23809005  17:00     0.007860
INFLOW@23809005  18:00     0.008340
INFLOW@23809005  18:60     0.008490
INFLOW@23809005  20:00     0.008570
INFLOW@23809005  21:00     0.008260
INFLOW@23809005  21:60     0.007220
INFLOW@23809005  23:00     0.007300
INFLOW@23809005  24:00     0.006510
INFLOW@23809049  0:00     0.034330
INFLOW@23809049  0:60     0.033490
INFLOW@23809049  2:00     0.032240
INFLOW@23809049  3:00     0.032240
INFLOW@23809049  3:60     0.032240
INFLOW@23809049  5:00     0.033070
INFLOW@23809049  6:00     0.039770
INFLOW@23809049  6:60     0.058610
INFLOW@23809049  8:00     0.054430
INFLOW@23809049  9:00     0.048150
INFLOW@23809049  9:60     0.045630
INFLOW@23809049  11:00     0.046470
INFLOW@23809049  12:00     0.043120
INFLOW@23809049  12:60     0.041450
INFLOW@23809049  14:00     0.042290
INFLOW@23809049  15:00     0.046050
INFLOW@23809049  15:60     0.038940
INFLOW@23809049  17:00     0.041450
INFLOW@23809049  18:00     0.043960
INFLOW@23809049  18:60     0.044800
INFLOW@23809049  20:00     0.045220
INFLOW@23809049  21:00     0.043540
INFLOW@23809049  21:60     0.038100
INFLOW@23809049  23:00     0.038520
INFLOW@23809049  24:00     0.034330
INFLOW@23808016  0:00     0.014240
INFLOW@23808016  0:60     0.013890
INFLOW@23808016  2:00     0.013370
INFLOW@23808016  3:00     0.013370
INFLOW@23808016  3:60     0.013370
INFLOW@23808016  5:00     0.013720
INFLOW@23808016  6:00     0.016500
INFLOW@23808016  6:60     0.024310
INFLOW@23808016  8:00     0.022570
INFLOW@23808016  9:00     0.019970
INFLOW@23808016  9:60     0.018930
INFLOW@23808016  11:00     0.019270
INFLOW@23808016  12:00     0.017890
INFLOW@23808016  12:60     0.017190
INFLOW@23808016  14:00     0.017540
INFLOW@23808016  15:00     0.019100
INFLOW@23808016  15:60     0.016150
INFLOW@23808016  17:00     0.017190
INFLOW@23808016  18:00     0.018230
INFLOW@23808016  18:60     0.018580
INFLOW@23808016  20:00     0.018750
INFLOW@23808016  21:00     0.018060
INFLOW@23808016  21:60     0.015800
INFLOW@23808016  23:00     0.015980
INFLOW@23808016  24:00     0.014240
INFLOW@23701017  0:00     0.069370
INFLOW@23701017  0:60     0.067680
INFLOW@23701017  2:00     0.065140
INFLOW@23701017  3:00     0.065140
INFLOW@23701017  3:60     0.065140
INFLOW@23701017  5:00     0.066840
INFLOW@23701017  6:00     0.080370
INFLOW@23701017  6:60     0.118440
INFLOW@23701017  8:00     0.109980
INFLOW@23701017  9:00     0.097290
INFLOW@23701017  9:60     0.092220
INFLOW@23701017  11:00     0.093910
INFLOW@23701017  12:00     0.087140
INFLOW@23701017  12:60     0.083760
INFLOW@23701017  14:00     0.085450
INFLOW@23701017  15:00     0.093060
INFLOW@23701017  15:60     0.078680
INFLOW@23701017  17:00     0.083760
INFLOW@23701017  18:00     0.088830
INFLOW@23701017  18:60     0.090520
INFLOW@23701017  20:00     0.091370
INFLOW@23701017  21:00     0.087990
INFLOW@23701017  21:60     0.076990
INFLOW@23701017  23:00     0.077830
INFLOW@23701017  24:00     0.069370
INFLOW@23702015  0:00     0.138670
INFLOW@23702015  0:60     0.135290
INFLOW@23702015  2:00     0.130220
INFLOW@23702015  3:00     0.130220
INFLOW@23702015  3:60     0.130220
INFLOW@23702015  5:00     0.133600
INFLOW@23702015  6:00     0.160660
INFLOW@23702015  6:60     0.236760
INFLOW@23702015  8:00     0.219850
INFLOW@23702015  9:00     0.194480
INFLOW@23702015  9:60     0.184340
INFLOW@23702015  11:00     0.187720
INFLOW@23702015  12:00     0.174190
INFLOW@23702015  12:60     0.167420
INFLOW@23702015  14:00     0.170810
INFLOW@23702015  15:00     0.186030
INFLOW@23702015  15:60     0.157280
INFLOW@23702015  17:00     0.167420
INFLOW@23702015  18:00     0.177570
INFLOW@23702015  18:60     0.180950
INFLOW@23702015  20:00     0.182640
INFLOW@23702015  21:00     0.175880
INFLOW@23702015  21:60     0.153890
INFLOW@23702015  23:00     0.155590
INFLOW@23702015  24:00     0.138670
INFLOW@23702045  0:00     0.097710
INFLOW@23702045  0:60     0.095330
INFLOW@23702045  2:00     0.091760
INFLOW@23702045  3:00     0.091760
INFLOW@23702045  3:60     0.091760
INFLOW@23702045  5:00     0.094140
INFLOW@23702045  6:00     0.113200
INFLOW@23702045  6:60     0.166830
INFLOW@23702045  8:00     0.154910
INFLOW@23702045  9:00     0.137040
INFLOW@23702045  9:60     0.129890
INFLOW@23702045  11:00     0.132270
INFLOW@23702045  12:00     0.122740
INFLOW@23702045  12:60     0.117970
INFLOW@23702045  14:00     0.120350
INFLOW@23702045  15:00     0.131080
INFLOW@23702045  15:60     0.110820
INFLOW@23702045  17:00     0.117970
INFLOW@23702045  18:00     0.125120
INFLOW@23702045  18:60     0.127500
INFLOW@23702045  20:00     0.128700
INFLOW@23702045  21:00     0.123930
INFLOW@23702045  21:60     0.108440
INFLOW@23702045  23:00     0.109630
INFLOW@23702045  24:00     0.097710
INFLOW@23815016  0:00     0.097580
INFLOW@23815016  0:60     0.095200
INFLOW@23815016  2:00     0.091630
INFLOW@23815016  3:00     0.091630
INFLOW@23815016  3:60     0.091630
INFLOW@23815016  5:00     0.094010
INFLOW@23815016  6:00     0.113050
INFLOW@23815016  6:60     0.166590
INFLOW@23815016  8:00     0.154690
INFLOW@23815016  9:00     0.136840
INFLOW@23815016  9:60     0.129700
INFLOW@23815016  11:00     0.132080
INFLOW@23815016  12:00     0.122560
INFLOW@23815016  12:60     0.117800
INFLOW@23815016  14:00     0.120180
INFLOW@23815016  15:00     0.130890
INFLOW@23815016  15:60     0.110670
INFLOW@23815016  17:00     0.117800
INFLOW@23815016  18:00     0.124940
INFLOW@23815016  18:60     0.127320
INFLOW@23815016  20:00     0.128510
INFLOW@23815016  21:00     0.123750
INFLOW@23815016  21:60     0.108290
INFLOW@23815016  23:00     0.109480
INFLOW@23815016  24:00     0.097580
INFLOW@23815015  0:00     0.017660
INFLOW@23815015  0:60     0.017230
INFLOW@23815015  2:00     0.016580
INFLOW@23815015  3:00     0.016580
INFLOW@23815015  3:60     0.016580
INFLOW@23815015  5:00     0.017010
INFLOW@23815015  6:00     0.020460
INFLOW@23815015  6:60     0.030150
INFLOW@23815015  8:00     0.028000
INFLOW@23815015  9:00     0.024770
INFLOW@23815015  9:60     0.023470
INFLOW@23815015  11:00     0.023900
INFLOW@23815015  12:00     0.022180
INFLOW@23815015  12:60     0.021320
INFLOW@23815015  14:00     0.021750
INFLOW@23815015  15:00     0.023690
INFLOW@23815015  15:60     0.020030
INFLOW@23815015  17:00     0.021320
INFLOW@23815015  18:00     0.022610
INFLOW@23815015  18:60     0.023040
INFLOW@23815015  20:00     0.023260
INFLOW@23815015  21:00     0.022400
INFLOW@23815015  21:60     0.019600
INFLOW@23815015  23:00     0.019810
INFLOW@23815015  24:00     0.017660
INFLOW@23815005  0:00     0.017790
INFLOW@23815005  0:60     0.017360
INFLOW@23815005  2:00     0.016710
INFLOW@23815005  3:00     0.016710
INFLOW@23815005  3:60     0.016710
INFLOW@23815005  5:00     0.017140
INFLOW@23815005  6:00     0.020610
INFLOW@23815005  6:60     0.030370
INFLOW@23815005  8:00     0.028200
INFLOW@23815005  9:00     0.024950
INFLOW@23815005  9:60     0.023650
INFLOW@23815005  11:00     0.024080
INFLOW@23815005  12:00     0.022350
INFLOW@23815005  12:60     0.021480
INFLOW@23815005  14:00     0.021910
INFLOW@23815005  15:00     0.023860
INFLOW@23815005  15:60     0.020180
INFLOW@23815005  17:00     0.021480
INFLOW@23815005  18:00     0.022780
INFLOW@23815005  18:60     0.023210
INFLOW@23815005  20:00     0.023430
INFLOW@23815005  21:00     0.022560
INFLOW@23815005  21:60     0.019740
INFLOW@23815005  23:00     0.019960
INFLOW@23815005  24:00     0.017790
INFLOW@23815004  0:00     0.006370
INFLOW@23815004  0:60     0.006220
INFLOW@23815004  2:00     0.005980
INFLOW@23815004  3:00     0.005980
INFLOW@23815004  3:60     0.005980
INFLOW@23815004  5:00     0.006140
INFLOW@23815004  6:00     0.007380
INFLOW@23815004  6:60     0.010880
INFLOW@23815004  8:00     0.010100
INFLOW@23815004  9:00     0.008940
INFLOW@23815004  9:60     0.008470
INFLOW@23815004  11:00     0.008630
INFLOW@23815004  12:00     0.008000
INFLOW@23815004  12:60     0.007690
INFLOW@23815004  14:00     0.007850
INFLOW@23815004  15:00     0.008550
INFLOW@23815004  15:60     0.007230
INFLOW@23815004  17:00     0.007690
INFLOW@23815004  18:00     0.008160
INFLOW@23815004  18:60     0.008320
INFLOW@23815004  20:00     0.008390
INFLOW@23815004  21:00     0.008080
INFLOW@23815004  21:60     0.007070
INFLOW@23815004  23:00     0.007150
INFLOW@23815004  24:00     0.006370
INFLOW@23815003  0:00     0.007900
INFLOW@23815003  0:60     0.007710
INFLOW@23815003  2:00     0.007420
INFLOW@23815003  3:00     0.007420
INFLOW@23815003  3:60     0.007420
INFLOW@23815003  5:00     0.007610
INFLOW@23815003  6:00     0.009150
INFLOW@23815003  6:60     0.013490
INFLOW@23815003  8:00     0.012530
INFLOW@23815003  9:00     0.011080
INFLOW@23815003  9:60     0.010500
INFLOW@23815003  11:00     0.010700
INFLOW@23815003  12:00     0.009930
INFLOW@23815003  12:60     0.009540
INFLOW@23815003  14:00     0.009730
INFLOW@23815003  15:00     0.010600
INFLOW@23815003  15:60     0.008960
INFLOW@23815003  17:00     0.009540
INFLOW@23815003  18:00     0.010120
INFLOW@23815003  18:60     0.010310
INFLOW@23815003  20:00     0.010410
INFLOW@23815003  21:00     0.010020
INFLOW@23815003  21:60     0.008770
INFLOW@23815003  23:00     0.008870
INFLOW@23815003  24:00     0.007900
INFLOW@23815002  0:00     0.015710
INFLOW@23815002  0:60     0.015330
INFLOW@23815002  2:00     0.014750
INFLOW@23815002  3:00     0.014750
INFLOW@23815002  3:60     0.014750
INFLOW@23815002  5:00     0.015140
INFLOW@23815002  6:00     0.018200
INFLOW@23815002  6:60     0.026820
INFLOW@23815002  8:00     0.024910
INFLOW@23815002  9:00     0.022030
INFLOW@23815002  9:60     0.020880
INFLOW@23815002  11:00     0.021270
INFLOW@23815002  12:00     0.019730
INFLOW@23815002  12:60     0.018970
INFLOW@23815002  14:00     0.019350
INFLOW@23815002  15:00     0.021080
INFLOW@23815002  15:60     0.017820
INFLOW@23815002  17:00     0.018970
INFLOW@23815002  18:00     0.020120
INFLOW@23815002  18:60     0.020500
INFLOW@23815002  20:00     0.020690
INFLOW@23815002  21:00     0.019930
INFLOW@23815002  21:60     0.017440
INFLOW@23815002  23:00     0.017630
INFLOW@23815002  24:00     0.015710
INFLOW@23815014  0:00     0.016590
INFLOW@23815014  0:60     0.016190
INFLOW@23815014  2:00     0.015580
INFLOW@23815014  3:00     0.015580
INFLOW@23815014  3:60     0.015580
INFLOW@23815014  5:00     0.015980
INFLOW@23815014  6:00     0.019220
INFLOW@23815014  6:60     0.028320
INFLOW@23815014  8:00     0.026300
INFLOW@23815014  9:00     0.023270
INFLOW@23815014  9:60     0.022050
INFLOW@23815014  11:00     0.022460
INFLOW@23815014  12:00     0.020840
INFLOW@23815014  12:60     0.020030
INFLOW@23815014  14:00     0.020430
INFLOW@23815014  15:00     0.022250
INFLOW@23815014  15:60     0.018820
INFLOW@23815014  17:00     0.020030
INFLOW@23815014  18:00     0.021240
INFLOW@23815014  18:60     0.021650
INFLOW@23815014  20:00     0.021850
INFLOW@23815014  21:00     0.021040
INFLOW@23815014  21:60     0.018410
INFLOW@23815014  23:00     0.018610
INFLOW@23815014  24:00     0.016590
INFLOW@23809028  0:00     0.122840
INFLOW@23809028  0:60     0.119850
INFLOW@23809028  2:00     0.115350
INFLOW@23809028  3:00     0.115350
INFLOW@23809028  3:60     0.115350
INFLOW@23809028  5:00     0.118350
INFLOW@23809028  6:00     0.142320
INFLOW@23809028  6:60     0.209730
INFLOW@23809028  8:00     0.194750
INFLOW@23809028  9:00     0.172280
INFLOW@23809028  9:60     0.163290
INFLOW@23809028  11:00     0.166290
INFLOW@23809028  12:00     0.154300
INFLOW@23809028  12:60     0.148310
INFLOW@23809028  14:00     0.151310
INFLOW@23809028  15:00     0.164790
INFLOW@23809028  15:60     0.139320
INFLOW@23809028  17:00     0.148310
INFLOW@23809028  18:00     0.157300
INFLOW@23809028  18:60     0.160300
INFLOW@23809028  20:00     0.161790
INFLOW@23809028  21:00     0.155800
INFLOW@23809028  21:60     0.136330
INFLOW@23809028  23:00     0.137830
INFLOW@23809028  24:00     0.122840
INFLOW@23809027  0:00     0.034410
INFLOW@23809027  0:60     0.033580
INFLOW@23809027  2:00     0.032320
INFLOW@23809027  3:00     0.032320
INFLOW@23809027  3:60     0.032320
INFLOW@23809027  5:00     0.033160
INFLOW@23809027  6:00     0.039870
INFLOW@23809027  6:60     0.058760
INFLOW@23809027  8:00     0.054560
INFLOW@23809027  9:00     0.048260
INFLOW@23809027  9:60     0.045750
INFLOW@23809027  11:00     0.046590
INFLOW@23809027  12:00     0.043230
INFLOW@23809027  12:60     0.041550
INFLOW@23809027  14:00     0.042390
INFLOW@23809027  15:00     0.046170
INFLOW@23809027  15:60     0.039030
INFLOW@23809027  17:00     0.041550
INFLOW@23809027  18:00     0.044070
INFLOW@23809027  18:60     0.044910
INFLOW@23809027  20:00     0.045330
INFLOW@23809027  21:00     0.043650
INFLOW@23809027  21:60     0.038190
INFLOW@23809027  23:00     0.038610
INFLOW@23809027  24:00     0.034410
INFLOW@23814006  0:00     0.047880
INFLOW@23814006  0:60     0.046710
INFLOW@23814006  2:00     0.044960
INFLOW@23814006  3:00     0.044960
INFLOW@23814006  3:60     0.044960
INFLOW@23814006  5:00     0.046120
INFLOW@23814006  6:00     0.055470
INFLOW@23814006  6:60     0.081740
INFLOW@23814006  8:00     0.075900
INFLOW@23814006  9:00     0.067140
INFLOW@23814006  9:60     0.063640
INFLOW@23814006  11:00     0.064810
INFLOW@23814006  12:00     0.060140
INFLOW@23814006  12:60     0.057800
INFLOW@23814006  14:00     0.058970
INFLOW@23814006  15:00     0.064220
INFLOW@23814006  15:60     0.054300
INFLOW@23814006  17:00     0.057800
INFLOW@23814006  18:00     0.061300
INFLOW@23814006  18:60     0.062470
INFLOW@23814006  20:00     0.063060
INFLOW@23814006  21:00     0.060720
INFLOW@23814006  21:60     0.053130
INFLOW@23814006  23:00     0.053710
INFLOW@23814006  24:00     0.047880
INFLOW@23811029  0:00     0.067030
INFLOW@23811029  0:60     0.065390
INFLOW@23811029  2:00     0.062940
INFLOW@23811029  3:00     0.062940
INFLOW@23811029  3:60     0.062940
INFLOW@23811029  5:00     0.064580
INFLOW@23811029  6:00     0.077660
INFLOW@23811029  6:60     0.114440
INFLOW@23811029  8:00     0.106270
INFLOW@23811029  9:00     0.094000
INFLOW@23811029  9:60     0.089100
INFLOW@23811029  11:00     0.090730
INFLOW@23811029  12:00     0.084200
INFLOW@23811029  12:60     0.080930
INFLOW@23811029  14:00     0.082560
INFLOW@23811029  15:00     0.089920
INFLOW@23811029  15:60     0.076020
INFLOW@23811029  17:00     0.080930
INFLOW@23811029  18:00     0.085830
INFLOW@23811029  18:60     0.087460
INFLOW@23811029  20:00     0.088280
INFLOW@23811029  21:00     0.085010
INFLOW@23811029  21:60     0.074390
INFLOW@23811029  23:00     0.075200
INFLOW@23811029  24:00     0.067030
INFLOW@23814009  0:00     0.020330
INFLOW@23814009  0:60     0.019840
INFLOW@23814009  2:00     0.019090
INFLOW@23814009  3:00     0.019090
INFLOW@23814009  3:60     0.019090
INFLOW@23814009  5:00     0.019590
INFLOW@23814009  6:00     0.023550
INFLOW@23814009  6:60     0.034710
INFLOW@23814009  8:00     0.032230
INFLOW@23814009  9:00     0.028510
INFLOW@23814009  9:60     0.027030
INFLOW@23814009  11:00     0.027520
INFLOW@23814009  12:00     0.025540
INFLOW@23814009  12:60     0.024550
INFLOW@23814009  14:00     0.025040
INFLOW@23814009  15:00     0.027270
INFLOW@23814009  15:60     0.023060
INFLOW@23814009  17:00     0.024550
INFLOW@23814009  18:00     0.026030
INFLOW@23814009  18:60     0.026530
INFLOW@23814009  20:00     0.026780
INFLOW@23814009  21:00     0.025790
INFLOW@23814009  21:60     0.022560
INFLOW@23814009  23:00     0.022810
INFLOW@23814009  24:00     0.020330
INFLOW@23811028  0:00     0.037310
INFLOW@23811028  0:60     0.036400
INFLOW@23811028  2:00     0.035040
INFLOW@23811028  3:00     0.035040
INFLOW@23811028  3:60     0.035040
INFLOW@23811028  5:00     0.035950
INFLOW@23811028  6:00     0.043230
INFLOW@23811028  6:60     0.063700
INFLOW@23811028  8:00     0.059150
INFLOW@23811028  9:00     0.052330
INFLOW@23811028  9:60     0.049600
INFLOW@23811028  11:00     0.050510
INFLOW@23811028  12:00     0.046870
INFLOW@23811028  12:60     0.045050
INFLOW@23811028  14:00     0.045960
INFLOW@23811028  15:00     0.050050
INFLOW@23811028  15:60     0.042320
INFLOW@23811028  17:00     0.045050
INFLOW@23811028  18:00     0.047780
INFLOW@23811028  18:60     0.048690
INFLOW@23811028  20:00     0.049140
INFLOW@23811028  21:00     0.047320
INFLOW@23811028  21:60     0.041410
INFLOW@23811028  23:00     0.041860
INFLOW@23811028  24:00     0.037310
INFLOW@23815025  0:00     0.010190
INFLOW@23815025  0:60     0.009940
INFLOW@23815025  2:00     0.009570
INFLOW@23815025  3:00     0.009570
INFLOW@23815025  3:60     0.009570
INFLOW@23815025  5:00     0.009810
INFLOW@23815025  6:00     0.011800
INFLOW@23815025  6:60     0.017390
INFLOW@23815025  8:00     0.016150
INFLOW@23815025  9:00     0.014290
INFLOW@23815025  9:60     0.013540
INFLOW@23815025  11:00     0.013790
INFLOW@23815025  12:00     0.012800
INFLOW@23815025  12:60     0.012300
INFLOW@23815025  14:00     0.012550
INFLOW@23815025  15:00     0.013670
INFLOW@23815025  15:60     0.011550
INFLOW@23815025  17:00     0.012300
INFLOW@23815025  18:00     0.013040
INFLOW@23815025  18:60     0.013290
INFLOW@23815025  20:00     0.013420
INFLOW@23815025  21:00     0.012920
INFLOW@23815025  21:60     0.011310
INFLOW@23815025  23:00     0.011430
INFLOW@23815025  24:00     0.010190
INFLOW@23810026  0:00     0.045610
INFLOW@23810026  0:60     0.044500
INFLOW@23810026  2:00     0.042830
INFLOW@23810026  3:00     0.042830
INFLOW@23810026  3:60     0.042830
INFLOW@23810026  5:00     0.043940
INFLOW@23810026  6:00     0.052840
INFLOW@23810026  6:60     0.077870
INFLOW@23810026  8:00     0.072310
INFLOW@23810026  9:00     0.063970
INFLOW@23810026  9:60     0.060630
INFLOW@23810026  11:00     0.061740
INFLOW@23810026  12:00     0.057290
INFLOW@23810026  12:60     0.055070
INFLOW@23810026  14:00     0.056180
INFLOW@23810026  15:00     0.061190
INFLOW@23810026  15:60     0.051730
INFLOW@23810026  17:00     0.055070
INFLOW@23810026  18:00     0.058400
INFLOW@23810026  18:60     0.059520
INFLOW@23810026  20:00     0.060070
INFLOW@23810026  21:00     0.057850
INFLOW@23810026  21:60     0.050620
INFLOW@23810026  23:00     0.051170
INFLOW@23810026  24:00     0.045610
INFLOW@23815030  0:00     0.001890
INFLOW@23815030  0:60     0.001840
INFLOW@23815030  2:00     0.001770
INFLOW@23815030  3:00     0.001770
INFLOW@23815030  3:60     0.001770
INFLOW@23815030  5:00     0.001820
INFLOW@23815030  6:00     0.002190
INFLOW@23815030  6:60     0.003220
INFLOW@23815030  8:00     0.002990
INFLOW@23815030  9:00     0.002650
INFLOW@23815030  9:60     0.002510
INFLOW@23815030  11:00     0.002560
INFLOW@23815030  12:00     0.002370
INFLOW@23815030  12:60     0.002280
INFLOW@23815030  14:00     0.002330
INFLOW@23815030  15:00     0.002530
INFLOW@23815030  15:60     0.002140
INFLOW@23815030  17:00     0.002280
INFLOW@23815030  18:00     0.002420
INFLOW@23815030  18:60     0.002460
INFLOW@23815030  20:00     0.002490
INFLOW@23815030  21:00     0.002400
INFLOW@23815030  21:60     0.002100
INFLOW@23815030  23:00     0.002120
INFLOW@23815030  24:00     0.001890
INFLOW@23815032  0:00     0.078620
INFLOW@23815032  0:60     0.076700
INFLOW@23815032  2:00     0.073820
INFLOW@23815032  3:00     0.073820
INFLOW@23815032  3:60     0.073820
INFLOW@23815032  5:00     0.075740
INFLOW@23815032  6:00     0.091080
INFLOW@23815032  6:60     0.134220
INFLOW@23815032  8:00     0.124630
INFLOW@23815032  9:00     0.110250
INFLOW@23815032  9:60     0.104500
INFLOW@23815032  11:00     0.106420
INFLOW@23815032  12:00     0.098750
INFLOW@23815032  12:60     0.094910
INFLOW@23815032  14:00     0.096830
INFLOW@23815032  15:00     0.105460
INFLOW@23815032  15:60     0.089160
INFLOW@23815032  17:00     0.094910
INFLOW@23815032  18:00     0.100670
INFLOW@23815032  18:60     0.102580
INFLOW@23815032  20:00     0.103540
INFLOW@23815032  21:00     0.099710
INFLOW@23815032  21:60     0.087240
INFLOW@23815032  23:00     0.088200
INFLOW@23815032  24:00     0.078620
INFLOW@23702011  0:00     0.007790
INFLOW@23702011  0:60     0.007600
INFLOW@23702011  2:00     0.007310
INFLOW@23702011  3:00     0.007310
INFLOW@23702011  3:60     0.007310
INFLOW@23702011  5:00     0.007500
INFLOW@23702011  6:00     0.009020
INFLOW@23702011  6:60     0.013300
INFLOW@23702011  8:00     0.012350
INFLOW@23702011  9:00     0.010920
INFLOW@23702011  9:60     0.010350
INFLOW@23702011  11:00     0.010540
INFLOW@23702011  12:00     0.009780
INFLOW@23702011  12:60     0.009400
INFLOW@23702011  14:00     0.009590
INFLOW@23702011  15:00     0.010450
INFLOW@23702011  15:60     0.008830
INFLOW@23702011  17:00     0.009400
INFLOW@23702011  18:00     0.009970
INFLOW@23702011  18:60     0.010160
INFLOW@23702011  20:00     0.010260
INFLOW@23702011  21:00     0.009880
INFLOW@23702011  21:60     0.008640
INFLOW@23702011  23:00     0.008740
INFLOW@23702011  24:00     0.007790
INFLOW@23815023  0:00     0.010270
INFLOW@23815023  0:60     0.010020
INFLOW@23815023  2:00     0.009640
INFLOW@23815023  3:00     0.009640
INFLOW@23815023  3:60     0.009640
INFLOW@23815023  5:00     0.009900
INFLOW@23815023  6:00     0.011900
INFLOW@23815023  6:60     0.017540
INFLOW@23815023  8:00     0.016280
INFLOW@23815023  9:00     0.014400
INFLOW@23815023  9:60     0.013650
INFLOW@23815023  11:00     0.013900
INFLOW@23815023  12:00     0.012900
INFLOW@23815023  12:60     0.012400
INFLOW@23815023  14:00     0.012650
INFLOW@23815023  15:00     0.013780
INFLOW@23815023  15:60     0.011650
INFLOW@23815023  17:00     0.012400
INFLOW@23815023  18:00     0.013150
INFLOW@23815023  18:60     0.013400
INFLOW@23815023  20:00     0.013530
INFLOW@23815023  21:00     0.013030
INFLOW@23815023  21:60     0.011400
INFLOW@23815023  23:00     0.011520
INFLOW@23815023  24:00     0.010270
INFLOW@23815009  0:00     0.015100
INFLOW@23815009  0:60     0.014730
INFLOW@23815009  2:00     0.014180
INFLOW@23815009  3:00     0.014180
INFLOW@23815009  3:60     0.014180
INFLOW@23815009  5:00     0.014550
INFLOW@23815009  6:00     0.017490
INFLOW@23815009  6:60     0.025780
INFLOW@23815009  8:00     0.023940
INFLOW@23815009  9:00     0.021180
INFLOW@23815009  9:60     0.020070
INFLOW@23815009  11:00     0.020440
INFLOW@23815009  12:00     0.018970
INFLOW@23815009  12:60     0.018230
INFLOW@23815009  14:00     0.018600
INFLOW@23815009  15:00     0.020260
INFLOW@23815009  15:60     0.017130
INFLOW@23815009  17:00     0.018230
INFLOW@23815009  18:00     0.019340
INFLOW@23815009  18:60     0.019700
INFLOW@23815009  20:00     0.019890
INFLOW@23815009  21:00     0.019150
INFLOW@23815009  21:60     0.016760
INFLOW@23815009  23:00     0.016940
INFLOW@23815009  24:00     0.015100
INFLOW@23810012  0:00     0.010810
INFLOW@23810012  0:60     0.010550
INFLOW@23810012  2:00     0.010150
INFLOW@23810012  3:00     0.010150
INFLOW@23810012  3:60     0.010150
INFLOW@23810012  5:00     0.010410
INFLOW@23810012  6:00     0.012520
INFLOW@23810012  6:60     0.018450
INFLOW@23810012  8:00     0.017140
INFLOW@23810012  9:00     0.015160
INFLOW@23810012  9:60     0.014370
INFLOW@23810012  11:00     0.014630
INFLOW@23810012  12:00     0.013580
INFLOW@23810012  12:60     0.013050
INFLOW@23810012  14:00     0.013310
INFLOW@23810012  15:00     0.014500
INFLOW@23810012  15:60     0.012260
INFLOW@23810012  17:00     0.013050
INFLOW@23810012  18:00     0.013840
INFLOW@23810012  18:60     0.014100
INFLOW@23810012  20:00     0.014240
INFLOW@23810012  21:00     0.013710
INFLOW@23810012  21:60     0.012000
INFLOW@23810012  23:00     0.012130
INFLOW@23810012  24:00     0.010810
INFLOW@23810011  0:00     0.011160
INFLOW@23810011  0:60     0.010890
INFLOW@23810011  2:00     0.010480
INFLOW@23810011  3:00     0.010480
INFLOW@23810011  3:60     0.010480
INFLOW@23810011  5:00     0.010750
INFLOW@23810011  6:00     0.012930
INFLOW@23810011  6:60     0.019060
INFLOW@23810011  8:00     0.017690
INFLOW@23810011  9:00     0.015650
INFLOW@23810011  9:60     0.014840
INFLOW@23810011  11:00     0.015110
INFLOW@23810011  12:00     0.014020
INFLOW@23810011  12:60     0.013480
INFLOW@23810011  14:00     0.013750
INFLOW@23810011  15:00     0.014970
INFLOW@23810011  15:60     0.012660
INFLOW@23810011  17:00     0.013480
INFLOW@23810011  18:00     0.014290
INFLOW@23810011  18:60     0.014560
INFLOW@23810011  20:00     0.014700
INFLOW@23810011  21:00     0.014160
INFLOW@23810011  21:60     0.012390
INFLOW@23810011  23:00     0.012520
INFLOW@23810011  24:00     0.011160
INFLOW@23810019  0:00     0.033780
INFLOW@23810019  0:60     0.032950
INFLOW@23810019  2:00     0.031720
INFLOW@23810019  3:00     0.031720
INFLOW@23810019  3:60     0.031720
INFLOW@23810019  5:00     0.032540
INFLOW@23810019  6:00     0.039130
INFLOW@23810019  6:60     0.057660
INFLOW@23810019  8:00     0.053550
INFLOW@23810019  9:00     0.047370
INFLOW@23810019  9:60     0.044900
INFLOW@23810019  11:00     0.045720
INFLOW@23810019  12:00     0.042420
INFLOW@23810019  12:60     0.040780
INFLOW@23810019  14:00     0.041600
INFLOW@23810019  15:00     0.045310
INFLOW@23810019  15:60     0.038310
INFLOW@23810019  17:00     0.040780
INFLOW@23810019  18:00     0.043250
INFLOW@23810019  18:60     0.044070
INFLOW@23810019  20:00     0.044480
INFLOW@23810019  21:00     0.042840
INFLOW@23810019  21:60     0.037480
INFLOW@23810019  23:00     0.037890
INFLOW@23810019  24:00     0.033780
INFLOW@23811003  0:00     0.028870
INFLOW@23811003  0:60     0.028160
INFLOW@23811003  2:00     0.027110
INFLOW@23811003  3:00     0.027110
INFLOW@23811003  3:60     0.027110
INFLOW@23811003  5:00     0.027810
INFLOW@23811003  6:00     0.033440
INFLOW@23811003  6:60     0.049280
INFLOW@23811003  8:00     0.045760
INFLOW@23811003  9:00     0.040480
INFLOW@23811003  9:60     0.038370
INFLOW@23811003  11:00     0.039080
INFLOW@23811003  12:00     0.036260
INFLOW@23811003  12:60     0.034850
INFLOW@23811003  14:00     0.035560
INFLOW@23811003  15:00     0.038720
INFLOW@23811003  15:60     0.032740
INFLOW@23811003  17:00     0.034850
INFLOW@23811003  18:00     0.036960
INFLOW@23811003  18:60     0.037670
INFLOW@23811003  20:00     0.038020
INFLOW@23811003  21:00     0.036610
INFLOW@23811003  21:60     0.032030
INFLOW@23811003  23:00     0.032390
INFLOW@23811003  24:00     0.028870
INFLOW@23810016  0:00     0.053390
INFLOW@23810016  0:60     0.052090
INFLOW@23810016  2:00     0.050140
INFLOW@23810016  3:00     0.050140
INFLOW@23810016  3:60     0.050140
INFLOW@23810016  5:00     0.051440
INFLOW@23810016  6:00     0.061860
INFLOW@23810016  6:60     0.091160
INFLOW@23810016  8:00     0.084650
INFLOW@23810016  9:00     0.074880
INFLOW@23810016  9:60     0.070970
INFLOW@23810016  11:00     0.072280
INFLOW@23810016  12:00     0.067070
INFLOW@23810016  12:60     0.064460
INFLOW@23810016  14:00     0.065760
INFLOW@23810016  15:00     0.071630
INFLOW@23810016  15:60     0.060560
INFLOW@23810016  17:00     0.064460
INFLOW@23810016  18:00     0.068370
INFLOW@23810016  18:60     0.069670
INFLOW@23810016  20:00     0.070320
INFLOW@23810016  21:00     0.067720
INFLOW@23810016  21:60     0.059250
INFLOW@23810016  23:00     0.059900
INFLOW@23810016  24:00     0.053390
INFLOW@23810014  0:00     0.009540
INFLOW@23810014  0:60     0.009300
INFLOW@23810014  2:00     0.008950
INFLOW@23810014  3:00     0.008950
INFLOW@23810014  3:60     0.008950
INFLOW@23810014  5:00     0.009190
INFLOW@23810014  6:00     0.011050
INFLOW@23810014  6:60     0.016280
INFLOW@23810014  8:00     0.015120
INFLOW@23810014  9:00     0.013370
INFLOW@23810014  9:60     0.012680
INFLOW@23810014  11:00     0.012910
INFLOW@23810014  12:00     0.011980
INFLOW@23810014  12:60     0.011510
INFLOW@23810014  14:00     0.011750
INFLOW@23810014  15:00     0.012790
INFLOW@23810014  15:60     0.010820
INFLOW@23810014  17:00     0.011510
INFLOW@23810014  18:00     0.012210
INFLOW@23810014  18:60     0.012440
INFLOW@23810014  20:00     0.012560
INFLOW@23810014  21:00     0.012090
INFLOW@23810014  21:60     0.010580
INFLOW@23810014  23:00     0.010700
INFLOW@23810014  24:00     0.009540
INFLOW@23810003  0:00     0.058570
INFLOW@23810003  0:60     0.057140
INFLOW@23810003  2:00     0.054990
INFLOW@23810003  3:00     0.054990
INFLOW@23810003  3:60     0.054990
INFLOW@23810003  5:00     0.056420
INFLOW@23810003  6:00     0.067850
INFLOW@23810003  6:60     0.099990
INFLOW@23810003  8:00     0.092850
INFLOW@23810003  9:00     0.082130
INFLOW@23810003  9:60     0.077850
INFLOW@23810003  11:00     0.079280
INFLOW@23810003  12:00     0.073560
INFLOW@23810003  12:60     0.070710
INFLOW@23810003  14:00     0.072140
INFLOW@23810003  15:00     0.078560
INFLOW@23810003  15:60     0.066420
INFLOW@23810003  17:00     0.070710
INFLOW@23810003  18:00     0.074990
INFLOW@23810003  18:60     0.076420
INFLOW@23810003  20:00     0.077130
INFLOW@23810003  21:00     0.074280
INFLOW@23810003  21:60     0.064990
INFLOW@23810003  23:00     0.065710
INFLOW@23810003  24:00     0.058570
INFLOW@23810009  0:00     0.119920
INFLOW@23810009  0:60     0.116990
INFLOW@23810009  2:00     0.112600
INFLOW@23810009  3:00     0.112600
INFLOW@23810009  3:60     0.112600
INFLOW@23810009  5:00     0.115530
INFLOW@23810009  6:00     0.138930
INFLOW@23810009  6:60     0.204730
INFLOW@23810009  8:00     0.190110
INFLOW@23810009  9:00     0.168170
INFLOW@23810009  9:60     0.159400
INFLOW@23810009  11:00     0.162320
INFLOW@23810009  12:00     0.150630
INFLOW@23810009  12:60     0.144780
INFLOW@23810009  14:00     0.147700
INFLOW@23810009  15:00     0.160860
INFLOW@23810009  15:60     0.136000
INFLOW@23810009  17:00     0.144780
INFLOW@23810009  18:00     0.153550
INFLOW@23810009  18:60     0.156470
INFLOW@23810009  20:00     0.157940
INFLOW@23810009  21:00     0.152090
INFLOW@23810009  21:60     0.133080
INFLOW@23810009  23:00     0.134540
INFLOW@23810009  24:00     0.119920
INFLOW@23807013  0:00     0.106810
INFLOW@23807013  0:60     0.104210
INFLOW@23807013  2:00     0.100300
INFLOW@23807013  3:00     0.100300
INFLOW@23807013  3:60     0.100300
INFLOW@23807013  5:00     0.102900
INFLOW@23807013  6:00     0.123750
INFLOW@23807013  6:60     0.182360
INFLOW@23807013  8:00     0.169340
INFLOW@23807013  9:00     0.149800
INFLOW@23807013  9:60     0.141980
INFLOW@23807013  11:00     0.144590
INFLOW@23807013  12:00     0.134170
INFLOW@23807013  12:60     0.128960
INFLOW@23807013  14:00     0.131560
INFLOW@23807013  15:00     0.143290
INFLOW@23807013  15:60     0.121140
INFLOW@23807013  17:00     0.128960
INFLOW@23807013  18:00     0.136770
INFLOW@23807013  18:60     0.139380
INFLOW@23807013  20:00     0.140680
INFLOW@23807013  21:00     0.135470
INFLOW@23807013  21:60     0.118540
INFLOW@23807013  23:00     0.119840
INFLOW@23807013  24:00     0.106810
INFLOW@23802012  0:00     0.030030
INFLOW@23802012  0:60     0.029290
INFLOW@23802012  2:00     0.028200
INFLOW@23802012  3:00     0.028200
INFLOW@23802012  3:60     0.028200
INFLOW@23802012  5:00     0.028930
INFLOW@23802012  6:00     0.034790
INFLOW@23802012  6:60     0.051260
INFLOW@23802012  8:00     0.047600
INFLOW@23802012  9:00     0.042110
INFLOW@23802012  9:60     0.039910
INFLOW@23802012  11:00     0.040650
INFLOW@23802012  12:00     0.037720
INFLOW@23802012  12:60     0.036250
INFLOW@23802012  14:00     0.036980
INFLOW@23802012  15:00     0.040280
INFLOW@23802012  15:60     0.034050
INFLOW@23802012  17:00     0.036250
INFLOW@23802012  18:00     0.038450
INFLOW@23802012  18:60     0.039180
INFLOW@23802012  20:00     0.039550
INFLOW@23802012  21:00     0.038080
INFLOW@23802012  21:60     0.033320
INFLOW@23802012  23:00     0.033690
INFLOW@23802012  24:00     0.030030
INFLOW@23807017  0:00     0.003860
INFLOW@23807017  0:60     0.003770
INFLOW@23807017  2:00     0.003630
INFLOW@23807017  3:00     0.003630
INFLOW@23807017  3:60     0.003630
INFLOW@23807017  5:00     0.003720
INFLOW@23807017  6:00     0.004470
INFLOW@23807017  6:60     0.006590
INFLOW@23807017  8:00     0.006120
INFLOW@23807017  9:00     0.005420
INFLOW@23807017  9:60     0.005130
INFLOW@23807017  11:00     0.005230
INFLOW@23807017  12:00     0.004850
INFLOW@23807017  12:60     0.004660
INFLOW@23807017  14:00     0.004760
INFLOW@23807017  15:00     0.005180
INFLOW@23807017  15:60     0.004380
INFLOW@23807017  17:00     0.004660
INFLOW@23807017  18:00     0.004940
INFLOW@23807017  18:60     0.005040
INFLOW@23807017  20:00     0.005090
INFLOW@23807017  21:00     0.004900
INFLOW@23807017  21:60     0.004290
INFLOW@23807017  23:00     0.004330
INFLOW@23807017  24:00     0.003860
INFLOW@23807018  0:00     0.021200
INFLOW@23807018  0:60     0.020680
INFLOW@23807018  2:00     0.019900
INFLOW@23807018  3:00     0.019900
INFLOW@23807018  3:60     0.019900
INFLOW@23807018  5:00     0.020420
INFLOW@23807018  6:00     0.024560
INFLOW@23807018  6:60     0.036190
INFLOW@23807018  8:00     0.033610
INFLOW@23807018  9:00     0.029730
INFLOW@23807018  9:60     0.028180
INFLOW@23807018  11:00     0.028690
INFLOW@23807018  12:00     0.026630
INFLOW@23807018  12:60     0.025590
INFLOW@23807018  14:00     0.026110
INFLOW@23807018  15:00     0.028440
INFLOW@23807018  15:60     0.024040
INFLOW@23807018  17:00     0.025590
INFLOW@23807018  18:00     0.027140
INFLOW@23807018  18:60     0.027660
INFLOW@23807018  20:00     0.027920
INFLOW@23807018  21:00     0.026880
INFLOW@23807018  21:60     0.023520
INFLOW@23807018  23:00     0.023780
INFLOW@23807018  24:00     0.021200
INFLOW@23807020  0:00     0.005240
INFLOW@23807020  0:60     0.005110
INFLOW@23807020  2:00     0.004920
INFLOW@23807020  3:00     0.004920
INFLOW@23807020  3:60     0.004920
INFLOW@23807020  5:00     0.005050
INFLOW@23807020  6:00     0.006070
INFLOW@23807020  6:60     0.008940
INFLOW@23807020  8:00     0.008300
INFLOW@23807020  9:00     0.007340
INFLOW@23807020  9:60     0.006960
INFLOW@23807020  11:00     0.007090
INFLOW@23807020  12:00     0.006580
INFLOW@23807020  12:60     0.006320
INFLOW@23807020  14:00     0.006450
INFLOW@23807020  15:00     0.007020
INFLOW@23807020  15:60     0.005940
INFLOW@23807020  17:00     0.006320
INFLOW@23807020  18:00     0.006710
INFLOW@23807020  18:60     0.006830
INFLOW@23807020  20:00     0.006900
INFLOW@23807020  21:00     0.006640
INFLOW@23807020  21:60     0.005810
INFLOW@23807020  23:00     0.005880
INFLOW@23807020  24:00     0.005240
INFLOW@23807031  0:00     0.032710
INFLOW@23807031  0:60     0.031910
INFLOW@23807031  2:00     0.030710
INFLOW@23807031  3:00     0.030710
INFLOW@23807031  3:60     0.030710
INFLOW@23807031  5:00     0.031510
INFLOW@23807031  6:00     0.037890
INFLOW@23807031  6:60     0.055840
INFLOW@23807031  8:00     0.051850
INFLOW@23807031  9:00     0.045870
INFLOW@23807031  9:60     0.043470
INFLOW@23807031  11:00     0.044270
INFLOW@23807031  12:00     0.041080
INFLOW@23807031  12:60     0.039490
INFLOW@23807031  14:00     0.040280
INFLOW@23807031  15:00     0.043870
INFLOW@23807031  15:60     0.037090
INFLOW@23807031  17:00     0.039490
INFLOW@23807031  18:00     0.041880
INFLOW@23807031  18:60     0.042680
INFLOW@23807031  20:00     0.043080
INFLOW@23807031  21:00     0.041480
INFLOW@23807031  21:60     0.036300
INFLOW@23807031  23:00     0.036690
INFLOW@23807031  24:00     0.032710
INFLOW@23809026  0:00     0.008120
INFLOW@23809026  0:60     0.007920
INFLOW@23809026  2:00     0.007620
INFLOW@23809026  3:00     0.007620
INFLOW@23809026  3:60     0.007620
INFLOW@23809026  5:00     0.007820
INFLOW@23809026  6:00     0.009410
INFLOW@23809026  6:60     0.013860
INFLOW@23809026  8:00     0.012870
INFLOW@23809026  9:00     0.011390
INFLOW@23809026  9:60     0.010790
INFLOW@23809026  11:00     0.010990
INFLOW@23809026  12:00     0.010200
INFLOW@23809026  12:60     0.009800
INFLOW@23809026  14:00     0.010000
INFLOW@23809026  15:00     0.010890
INFLOW@23809026  15:60     0.009210
INFLOW@23809026  17:00     0.009800
INFLOW@23809026  18:00     0.010400
INFLOW@23809026  18:60     0.010590
INFLOW@23809026  20:00     0.010690
INFLOW@23809026  21:00     0.010300
INFLOW@23809026  21:60     0.009010
INFLOW@23809026  23:00     0.009110
INFLOW@23809026  24:00     0.008120
INFLOW@23808025  0:00     0.032030
INFLOW@23808025  0:60     0.031250
INFLOW@23808025  2:00     0.030080
INFLOW@23808025  3:00     0.030080
INFLOW@23808025  3:60     0.030080
INFLOW@23808025  5:00     0.030860
INFLOW@23808025  6:00     0.037110
INFLOW@23808025  6:60     0.054690
INFLOW@23808025  8:00     0.050790
INFLOW@23808025  9:00     0.044930
INFLOW@23808025  9:60     0.042580
INFLOW@23808025  11:00     0.043360
INFLOW@23808025  12:00     0.040240
INFLOW@23808025  12:60     0.038680
INFLOW@23808025  14:00     0.039460
INFLOW@23808025  15:00     0.042970
INFLOW@23808025  15:60     0.036330
INFLOW@23808025  17:00     0.038680
INFLOW@23808025  18:00     0.041020
INFLOW@23808025  18:60     0.041800
INFLOW@23808025  20:00     0.042190
INFLOW@23808025  21:00     0.040630
INFLOW@23808025  21:60     0.035550
INFLOW@23808025  23:00     0.035940
INFLOW@23808025  24:00     0.032030
INFLOW@23808024  0:00     0.003160
INFLOW@23808024  0:60     0.003080
INFLOW@23808024  2:00     0.002970
INFLOW@23808024  3:00     0.002970
INFLOW@23808024  3:60     0.002970
INFLOW@23808024  5:00     0.003050
INFLOW@23808024  6:00     0.003660
INFLOW@23808024  6:60     0.005400
INFLOW@23808024  8:00     0.005010
INFLOW@23808024  9:00     0.004430
INFLOW@23808024  9:60     0.004200
INFLOW@23808024  11:00     0.004280
INFLOW@23808024  12:00     0.003970
INFLOW@23808024  12:60     0.003820
INFLOW@23808024  14:00     0.003890
INFLOW@23808024  15:00     0.004240
INFLOW@23808024  15:60     0.003590
INFLOW@23808024  17:00     0.003820
INFLOW@23808024  18:00     0.004050
INFLOW@23808024  18:60     0.004130
INFLOW@23808024  20:00     0.004160
INFLOW@23808024  21:00     0.004010
INFLOW@23808024  21:60     0.003510
INFLOW@23808024  23:00     0.003550
INFLOW@23808024  24:00     0.003160
INFLOW@23808012  0:00     0.110300
INFLOW@23808012  0:60     0.107610
INFLOW@23808012  2:00     0.103580
INFLOW@23808012  3:00     0.103580
INFLOW@23808012  3:60     0.103580
INFLOW@23808012  5:00     0.106270
INFLOW@23808012  6:00     0.127790
INFLOW@23808012  6:60     0.188320
INFLOW@23808012  8:00     0.174870
INFLOW@23808012  9:00     0.154690
INFLOW@23808012  9:60     0.146620
INFLOW@23808012  11:00     0.149310
INFLOW@23808012  12:00     0.138550
INFLOW@23808012  12:60     0.133170
INFLOW@23808012  14:00     0.135860
INFLOW@23808012  15:00     0.147970
INFLOW@23808012  15:60     0.125100
INFLOW@23808012  17:00     0.133170
INFLOW@23808012  18:00     0.141240
INFLOW@23808012  18:60     0.143930
INFLOW@23808012  20:00     0.145280
INFLOW@23808012  21:00     0.139900
INFLOW@23808012  21:60     0.122410
INFLOW@23808012  23:00     0.123750
INFLOW@23808012  24:00     0.110300
INFLOW@23808005  0:00     0.082350
INFLOW@23808005  0:60     0.080340
INFLOW@23808005  2:00     0.077330
INFLOW@23808005  3:00     0.077330
INFLOW@23808005  3:60     0.077330
INFLOW@23808005  5:00     0.079340
INFLOW@23808005  6:00     0.095410
INFLOW@23808005  6:60     0.140600
INFLOW@23808005  8:00     0.130550
INFLOW@23808005  9:00     0.115490
INFLOW@23808005  9:60     0.109470
INFLOW@23808005  11:00     0.111470
INFLOW@23808005  12:00     0.103440
INFLOW@23808005  12:60     0.099420
INFLOW@23808005  14:00     0.101430
INFLOW@23808005  15:00     0.110470
INFLOW@23808005  15:60     0.093400
INFLOW@23808005  17:00     0.099420
INFLOW@23808005  18:00     0.105450
INFLOW@23808005  18:60     0.107460
INFLOW@23808005  20:00     0.108460
INFLOW@23808005  21:00     0.104440
INFLOW@23808005  21:60     0.091390
INFLOW@23808005  23:00     0.092390
INFLOW@23808005  24:00     0.082350
INFLOW@23801007  0:00     0.006720
INFLOW@23801007  0:60     0.006560
INFLOW@23801007  2:00     0.006310
INFLOW@23801007  3:00     0.006310
INFLOW@23801007  3:60     0.006310
INFLOW@23801007  5:00     0.006480
INFLOW@23801007  6:00     0.007790
INFLOW@23801007  6:60     0.011480
INFLOW@23801007  8:00     0.010660
INFLOW@23801007  9:00     0.009430
INFLOW@23801007  9:60     0.008940
INFLOW@23801007  11:00     0.009100
INFLOW@23801007  12:00     0.008450
INFLOW@23801007  12:60     0.008120
INFLOW@23801007  14:00     0.008280
INFLOW@23801007  15:00     0.009020
INFLOW@23801007  15:60     0.007630
INFLOW@23801007  17:00     0.008120
INFLOW@23801007  18:00     0.008610
INFLOW@23801007  18:60     0.008770
INFLOW@23801007  20:00     0.008860
INFLOW@23801007  21:00     0.008530
INFLOW@23801007  21:60     0.007460
INFLOW@23801007  23:00     0.007540
INFLOW@23801007  24:00     0.006720
INFLOW@23801009  0:00     0.045480
INFLOW@23801009  0:60     0.044370
INFLOW@23801009  2:00     0.042710
INFLOW@23801009  3:00     0.042710
INFLOW@23801009  3:60     0.042710
INFLOW@23801009  5:00     0.043820
INFLOW@23801009  6:00     0.052690
INFLOW@23801009  6:60     0.077650
INFLOW@23801009  8:00     0.072100
INFLOW@23801009  9:00     0.063780
INFLOW@23801009  9:60     0.060460
INFLOW@23801009  11:00     0.061560
INFLOW@23801009  12:00     0.057130
INFLOW@23801009  12:60     0.054910
INFLOW@23801009  14:00     0.056020
INFLOW@23801009  15:00     0.061010
INFLOW@23801009  15:60     0.051580
INFLOW@23801009  17:00     0.054910
INFLOW@23801009  18:00     0.058240
INFLOW@23801009  18:60     0.059350
INFLOW@23801009  20:00     0.059900
INFLOW@23801009  21:00     0.057680
INFLOW@23801009  21:60     0.050470
INFLOW@23801009  23:00     0.051030
INFLOW@23801009  24:00     0.045480
INFLOW@23807028  0:00     0.040830
INFLOW@23807028  0:60     0.039830
INFLOW@23807028  2:00     0.038340
INFLOW@23807028  3:00     0.038340
INFLOW@23807028  3:60     0.038340
INFLOW@23807028  5:00     0.039340
INFLOW@23807028  6:00     0.047300
INFLOW@23807028  6:60     0.069710
INFLOW@23807028  8:00     0.064730
INFLOW@23807028  9:00     0.057260
INFLOW@23807028  9:60     0.054270
INFLOW@23807028  11:00     0.055270
INFLOW@23807028  12:00     0.051280
INFLOW@23807028  12:60     0.049290
INFLOW@23807028  14:00     0.050290
INFLOW@23807028  15:00     0.054770
INFLOW@23807028  15:60     0.046310
INFLOW@23807028  17:00     0.049290
INFLOW@23807028  18:00     0.052280
INFLOW@23807028  18:60     0.053280
INFLOW@23807028  20:00     0.053770
INFLOW@23807028  21:00     0.051780
INFLOW@23807028  21:60     0.045310
INFLOW@23807028  23:00     0.045810
INFLOW@23807028  24:00     0.040830
INFLOW@23807004  0:00     0.024310
INFLOW@23807004  0:60     0.023710
INFLOW@23807004  2:00     0.022820
INFLOW@23807004  3:00     0.022820
INFLOW@23807004  3:60     0.022820
INFLOW@23807004  5:00     0.023420
INFLOW@23807004  6:00     0.028160
INFLOW@23807004  6:60     0.041500
INFLOW@23807004  8:00     0.038530
INFLOW@23807004  9:00     0.034090
INFLOW@23807004  9:60     0.032310
INFLOW@23807004  11:00     0.032900
INFLOW@23807004  12:00     0.030530
INFLOW@23807004  12:60     0.029340
INFLOW@23807004  14:00     0.029940
INFLOW@23807004  15:00     0.032610
INFLOW@23807004  15:60     0.027570
INFLOW@23807004  17:00     0.029340
INFLOW@23807004  18:00     0.031120
INFLOW@23807004  18:60     0.031720
INFLOW@23807004  20:00     0.032010
INFLOW@23807004  21:00     0.030830
INFLOW@23807004  21:60     0.026970
INFLOW@23807004  23:00     0.027270
INFLOW@23807004  24:00     0.024310
INFLOW@23808032  0:00     0.013860
INFLOW@23808032  0:60     0.013520
INFLOW@23808032  2:00     0.013010
INFLOW@23808032  3:00     0.013010
INFLOW@23808032  3:60     0.013010
INFLOW@23808032  5:00     0.013350
INFLOW@23808032  6:00     0.016050
INFLOW@23808032  6:60     0.023660
INFLOW@23808032  8:00     0.021970
INFLOW@23808032  9:00     0.019430
INFLOW@23808032  9:60     0.018420
INFLOW@23808032  11:00     0.018760
INFLOW@23808032  12:00     0.017410
INFLOW@23808032  12:60     0.016730
INFLOW@23808032  14:00     0.017070
INFLOW@23808032  15:00     0.018590
INFLOW@23808032  15:60     0.015720
INFLOW@23808032  17:00     0.016730
INFLOW@23808032  18:00     0.017740
INFLOW@23808032  18:60     0.018080
INFLOW@23808032  20:00     0.018250
INFLOW@23808032  21:00     0.017580
INFLOW@23808032  21:60     0.015380
INFLOW@23808032  23:00     0.015550
INFLOW@23808032  24:00     0.013860
INFLOW@23801029  0:00     0.059910
INFLOW@23801029  0:60     0.058450
INFLOW@23801029  2:00     0.056260
INFLOW@23801029  3:00     0.056260
INFLOW@23801029  3:60     0.056260
INFLOW@23801029  5:00     0.057720
INFLOW@23801029  6:00     0.069410
INFLOW@23801029  6:60     0.102280
INFLOW@23801029  8:00     0.094980
INFLOW@23801029  9:00     0.084020
INFLOW@23801029  9:60     0.079640
INFLOW@23801029  11:00     0.081100
INFLOW@23801029  12:00     0.075250
INFLOW@23801029  12:60     0.072330
INFLOW@23801029  14:00     0.073790
INFLOW@23801029  15:00     0.080370
INFLOW@23801029  15:60     0.067950
INFLOW@23801029  17:00     0.072330
INFLOW@23801029  18:00     0.076710
INFLOW@23801029  18:60     0.078170
INFLOW@23801029  20:00     0.078900
INFLOW@23801029  21:00     0.075980
INFLOW@23801029  21:60     0.066480
INFLOW@23801029  23:00     0.067220
INFLOW@23801029  24:00     0.059910
INFLOW@23808019  0:00     0.028050
INFLOW@23808019  0:60     0.027360
INFLOW@23808019  2:00     0.026340
INFLOW@23808019  3:00     0.026340
INFLOW@23808019  3:60     0.026340
INFLOW@23808019  5:00     0.027020
INFLOW@23808019  6:00     0.032490
INFLOW@23808019  6:60     0.047890
INFLOW@23808019  8:00     0.044470
INFLOW@23808019  9:00     0.039330
INFLOW@23808019  9:60     0.037280
INFLOW@23808019  11:00     0.037970
INFLOW@23808019  12:00     0.035230
INFLOW@23808019  12:60     0.033860
INFLOW@23808019  14:00     0.034550
INFLOW@23808019  15:00     0.037620
INFLOW@23808019  15:60     0.031810
INFLOW@23808019  17:00     0.033860
INFLOW@23808019  18:00     0.035910
INFLOW@23808019  18:60     0.036600
INFLOW@23808019  20:00     0.036940
INFLOW@23808019  21:00     0.035570
INFLOW@23808019  21:60     0.031130
INFLOW@23808019  23:00     0.031470
INFLOW@23808019  24:00     0.028050
INFLOW@23801020  0:00     0.048490
INFLOW@23801020  0:60     0.047310
INFLOW@23801020  2:00     0.045530
INFLOW@23801020  3:00     0.045530
INFLOW@23801020  3:60     0.045530
INFLOW@23801020  5:00     0.046720
INFLOW@23801020  6:00     0.056180
INFLOW@23801020  6:60     0.082790
INFLOW@23801020  8:00     0.076880
INFLOW@23801020  9:00     0.068010
INFLOW@23801020  9:60     0.064460
INFLOW@23801020  11:00     0.065640
INFLOW@23801020  12:00     0.060910
INFLOW@23801020  12:60     0.058540
INFLOW@23801020  14:00     0.059730
INFLOW@23801020  15:00     0.065050
INFLOW@23801020  15:60     0.055000
INFLOW@23801020  17:00     0.058540
INFLOW@23801020  18:00     0.062090
INFLOW@23801020  18:60     0.063280
INFLOW@23801020  20:00     0.063870
INFLOW@23801020  21:00     0.061500
INFLOW@23801020  21:60     0.053810
INFLOW@23801020  23:00     0.054410
INFLOW@23801020  24:00     0.048490
INFLOW@23801025  0:00     0.023050
INFLOW@23801025  0:60     0.022480
INFLOW@23801025  2:00     0.021640
INFLOW@23801025  3:00     0.021640
INFLOW@23801025  3:60     0.021640
INFLOW@23801025  5:00     0.022200
INFLOW@23801025  6:00     0.026700
INFLOW@23801025  6:60     0.039350
INFLOW@23801025  8:00     0.036540
INFLOW@23801025  9:00     0.032320
INFLOW@23801025  9:60     0.030630
INFLOW@23801025  11:00     0.031200
INFLOW@23801025  12:00     0.028950
INFLOW@23801025  12:60     0.027820
INFLOW@23801025  14:00     0.028390
INFLOW@23801025  15:00     0.030920
INFLOW@23801025  15:60     0.026140
INFLOW@23801025  17:00     0.027820
INFLOW@23801025  18:00     0.029510
INFLOW@23801025  18:60     0.030070
INFLOW@23801025  20:00     0.030350
INFLOW@23801025  21:00     0.029230
INFLOW@23801025  21:60     0.025580
INFLOW@23801025  23:00     0.025860
INFLOW@23801025  24:00     0.023050
INFLOW@23801014  0:00     0.025740
INFLOW@23801014  0:60     0.025110
INFLOW@23801014  2:00     0.024170
INFLOW@23801014  3:00     0.024170
INFLOW@23801014  3:60     0.024170
INFLOW@23801014  5:00     0.024790
INFLOW@23801014  6:00     0.029820
INFLOW@23801014  6:60     0.043940
INFLOW@23801014  8:00     0.040800
INFLOW@23801014  9:00     0.036090
INFLOW@23801014  9:60     0.034210
INFLOW@23801014  11:00     0.034840
INFLOW@23801014  12:00     0.032330
INFLOW@23801014  12:60     0.031070
INFLOW@23801014  14:00     0.031700
INFLOW@23801014  15:00     0.034520
INFLOW@23801014  15:60     0.029190
INFLOW@23801014  17:00     0.031070
INFLOW@23801014  18:00     0.032950
INFLOW@23801014  18:60     0.033580
INFLOW@23801014  20:00     0.033900
INFLOW@23801014  21:00     0.032640
INFLOW@23801014  21:60     0.028560
INFLOW@23801014  23:00     0.028870
INFLOW@23801014  24:00     0.025740
INFLOW@23801026  0:00     0.001120
INFLOW@23801026  0:60     0.001090
INFLOW@23801026  2:00     0.001050
INFLOW@23801026  3:00     0.001050
INFLOW@23801026  3:60     0.001050
INFLOW@23801026  5:00     0.001080
INFLOW@23801026  6:00     0.001300
INFLOW@23801026  6:60     0.001910
INFLOW@23801026  8:00     0.001770
INFLOW@23801026  9:00     0.001570
INFLOW@23801026  9:60     0.001490
INFLOW@23801026  11:00     0.001510
INFLOW@23801026  12:00     0.001400
INFLOW@23801026  12:60     0.001350
INFLOW@23801026  14:00     0.001380
INFLOW@23801026  15:00     0.001500
INFLOW@23801026  15:60     0.001270
INFLOW@23801026  17:00     0.001350
INFLOW@23801026  18:00     0.001430
INFLOW@23801026  18:60     0.001460
INFLOW@23801026  20:00     0.001470
INFLOW@23801026  21:00     0.001420
INFLOW@23801026  21:60     0.001240
INFLOW@23801026  23:00     0.001250
INFLOW@23801026  24:00     0.001120
INFLOW@23801011  0:00     0.001960
INFLOW@23801011  0:60     0.001910
INFLOW@23801011  2:00     0.001840
INFLOW@23801011  3:00     0.001840
INFLOW@23801011  3:60     0.001840
INFLOW@23801011  5:00     0.001880
INFLOW@23801011  6:00     0.002270
INFLOW@23801011  6:60     0.003340
INFLOW@23801011  8:00     0.003100
INFLOW@23801011  9:00     0.002740
INFLOW@23801011  9:60     0.002600
INFLOW@23801011  11:00     0.002650
INFLOW@23801011  12:00     0.002460
INFLOW@23801011  12:60     0.002360
INFLOW@23801011  14:00     0.002410
INFLOW@23801011  15:00     0.002620
INFLOW@23801011  15:60     0.002220
INFLOW@23801011  17:00     0.002360
INFLOW@23801011  18:00     0.002500
INFLOW@23801011  18:60     0.002550
INFLOW@23801011  20:00     0.002580
INFLOW@23801011  21:00     0.002480
INFLOW@23801011  21:60     0.002170
INFLOW@23801011  23:00     0.002190
INFLOW@23801011  24:00     0.001960
INFLOW@23801013  0:00     0.002330
INFLOW@23801013  0:60     0.002270
INFLOW@23801013  2:00     0.002180
INFLOW@23801013  3:00     0.002180
INFLOW@23801013  3:60     0.002180
INFLOW@23801013  5:00     0.002240
INFLOW@23801013  6:00     0.002690
INFLOW@23801013  6:60     0.003970
INFLOW@23801013  8:00     0.003690
INFLOW@23801013  9:00     0.003260
INFLOW@23801013  9:60     0.003090
INFLOW@23801013  11:00     0.003150
INFLOW@23801013  12:00     0.002920
INFLOW@23801013  12:60     0.002810
INFLOW@23801013  14:00     0.002860
INFLOW@23801013  15:00     0.003120
INFLOW@23801013  15:60     0.002640
INFLOW@23801013  17:00     0.002810
INFLOW@23801013  18:00     0.002980
INFLOW@23801013  18:60     0.003030
INFLOW@23801013  20:00     0.003060
INFLOW@23801013  21:00     0.002950
INFLOW@23801013  21:60     0.002580
INFLOW@23801013  23:00     0.002610
INFLOW@23801013  24:00     0.002330
INFLOW@23801032  0:00     0.014100
INFLOW@23801032  0:60     0.013750
INFLOW@23801032  2:00     0.013240
INFLOW@23801032  3:00     0.013240
INFLOW@23801032  3:60     0.013240
INFLOW@23801032  5:00     0.013580
INFLOW@23801032  6:00     0.016330
INFLOW@23801032  6:60     0.024070
INFLOW@23801032  8:00     0.022350
INFLOW@23801032  9:00     0.019770
INFLOW@23801032  9:60     0.018740
INFLOW@23801032  11:00     0.019080
INFLOW@23801032  12:00     0.017710
INFLOW@23801032  12:60     0.017020
INFLOW@23801032  14:00     0.017360
INFLOW@23801032  15:00     0.018910
INFLOW@23801032  15:60     0.015990
INFLOW@23801032  17:00     0.017020
INFLOW@23801032  18:00     0.018050
INFLOW@23801032  18:60     0.018390
INFLOW@23801032  20:00     0.018570
INFLOW@23801032  21:00     0.017880
INFLOW@23801032  21:60     0.015640
INFLOW@23801032  23:00     0.015820
INFLOW@23801032  24:00     0.014100
INFLOW@23801001  0:00     0.039630
INFLOW@23801001  0:60     0.038670
INFLOW@23801001  2:00     0.037220
INFLOW@23801001  3:00     0.037220
INFLOW@23801001  3:60     0.037220
INFLOW@23801001  5:00     0.038180
INFLOW@23801001  6:00     0.045920
INFLOW@23801001  6:60     0.067670
INFLOW@23801001  8:00     0.062830
INFLOW@23801001  9:00     0.055580
INFLOW@23801001  9:60     0.052680
INFLOW@23801001  11:00     0.053650
INFLOW@23801001  12:00     0.049780
INFLOW@23801001  12:60     0.047850
INFLOW@23801001  14:00     0.048820
INFLOW@23801001  15:00     0.053170
INFLOW@23801001  15:60     0.044950
INFLOW@23801001  17:00     0.047850
INFLOW@23801001  18:00     0.050750
INFLOW@23801001  18:60     0.051720
INFLOW@23801001  20:00     0.052200
INFLOW@23801001  21:00     0.050270
INFLOW@23801001  21:60     0.043980
INFLOW@23801001  23:00     0.044470
INFLOW@23801001  24:00     0.039630
INFLOW@23916027  0:00     0.048430
INFLOW@23916027  0:60     0.047250
INFLOW@23916027  2:00     0.045470
INFLOW@23916027  3:00     0.045470
INFLOW@23916027  3:60     0.045470
INFLOW@23916027  5:00     0.046660
INFLOW@23916027  6:00     0.056100
INFLOW@23916027  6:60     0.082680
INFLOW@23916027  8:00     0.076770
INFLOW@23916027  9:00     0.067920
INFLOW@23916027  9:60     0.064370
INFLOW@23916027  11:00     0.065550
INFLOW@23916027  12:00     0.060830
INFLOW@23916027  12:60     0.058470
INFLOW@23916027  14:00     0.059650
INFLOW@23916027  15:00     0.064960
INFLOW@23916027  15:60     0.054920
INFLOW@23916027  17:00     0.058470
INFLOW@23916027  18:00     0.062010
INFLOW@23916027  18:60     0.063190
INFLOW@23916027  20:00     0.063780
INFLOW@23916027  21:00     0.061420
INFLOW@23916027  21:60     0.053740
INFLOW@23916027  23:00     0.054330
INFLOW@23916027  24:00     0.048430
INFLOW@23801003  0:00     0.244920
INFLOW@23801003  0:60     0.238950
INFLOW@23801003  2:00     0.229990
INFLOW@23801003  3:00     0.229990
INFLOW@23801003  3:60     0.229990
INFLOW@23801003  5:00     0.235960
INFLOW@23801003  6:00     0.283750
INFLOW@23801003  6:60     0.418160
INFLOW@23801003  8:00     0.388290
INFLOW@23801003  9:00     0.343490
INFLOW@23801003  9:60     0.325570
INFLOW@23801003  11:00     0.331540
INFLOW@23801003  12:00     0.307650
INFLOW@23801003  12:60     0.295700
INFLOW@23801003  14:00     0.301670
INFLOW@23801003  15:00     0.328550
INFLOW@23801003  15:60     0.277780
INFLOW@23801003  17:00     0.295700
INFLOW@23801003  18:00     0.313620
INFLOW@23801003  18:60     0.319590
INFLOW@23801003  20:00     0.322580
INFLOW@23801003  21:00     0.310630
INFLOW@23801003  21:60     0.271800
INFLOW@23801003  23:00     0.274790
INFLOW@23801003  24:00     0.244920
INFLOW@23916026  0:00     0.010750
INFLOW@23916026  0:60     0.010490
INFLOW@23916026  2:00     0.010100
INFLOW@23916026  3:00     0.010100
INFLOW@23916026  3:60     0.010100
INFLOW@23916026  5:00     0.010360
INFLOW@23916026  6:00     0.012460
INFLOW@23916026  6:60     0.018360
INFLOW@23916026  8:00     0.017050
INFLOW@23916026  9:00     0.015080
INFLOW@23916026  9:60     0.014290
INFLOW@23916026  11:00     0.014560
INFLOW@23916026  12:00     0.013510
INFLOW@23916026  12:60     0.012980
INFLOW@23916026  14:00     0.013250
INFLOW@23916026  15:00     0.014430
INFLOW@23916026  15:60     0.012200
INFLOW@23916026  17:00     0.012980
INFLOW@23916026  18:00     0.013770
INFLOW@23916026  18:60     0.014030
INFLOW@23916026  20:00     0.014160
INFLOW@23916026  21:00     0.013640
INFLOW@23916026  21:60     0.011930
INFLOW@23916026  23:00     0.012070
INFLOW@23916026  24:00     0.010750
INFLOW@23916014  0:00     0.047630
INFLOW@23916014  0:60     0.046460
INFLOW@23916014  2:00     0.044720
INFLOW@23916014  3:00     0.044720
INFLOW@23916014  3:60     0.044720
INFLOW@23916014  5:00     0.045880
INFLOW@23916014  6:00     0.055180
INFLOW@23916014  6:60     0.081310
INFLOW@23916014  8:00     0.075500
INFLOW@23916014  9:00     0.066790
INFLOW@23916014  9:60     0.063310
INFLOW@23916014  11:00     0.064470
INFLOW@23916014  12:00     0.059820
INFLOW@23916014  12:60     0.057500
INFLOW@23916014  14:00     0.058660
INFLOW@23916014  15:00     0.063890
INFLOW@23916014  15:60     0.054010
INFLOW@23916014  17:00     0.057500
INFLOW@23916014  18:00     0.060980
INFLOW@23916014  18:60     0.062150
INFLOW@23916014  20:00     0.062730
INFLOW@23916014  21:00     0.060400
INFLOW@23916014  21:60     0.052850
INFLOW@23916014  23:00     0.053430
INFLOW@23916014  24:00     0.047630
INFLOW@23916017  0:00     0.025960
INFLOW@23916017  0:60     0.025320
INFLOW@23916017  2:00     0.024370
INFLOW@23916017  3:00     0.024370
INFLOW@23916017  3:60     0.024370
INFLOW@23916017  5:00     0.025010
INFLOW@23916017  6:00     0.030070
INFLOW@23916017  6:60     0.044310
INFLOW@23916017  8:00     0.041150
INFLOW@23916017  9:00     0.036400
INFLOW@23916017  9:60     0.034500
INFLOW@23916017  11:00     0.035130
INFLOW@23916017  12:00     0.032600
INFLOW@23916017  12:60     0.031340
INFLOW@23916017  14:00     0.031970
INFLOW@23916017  15:00     0.034820
INFLOW@23916017  15:60     0.029440
INFLOW@23916017  17:00     0.031340
INFLOW@23916017  18:00     0.033240
INFLOW@23916017  18:60     0.033870
INFLOW@23916017  20:00     0.034180
INFLOW@23916017  21:00     0.032920
INFLOW@23916017  21:60     0.028800
INFLOW@23916017  23:00     0.029120
INFLOW@23916017  24:00     0.025960
INFLOW@23916015  0:00     0.011720
INFLOW@23916015  0:60     0.011430
INFLOW@23916015  2:00     0.011000
INFLOW@23916015  3:00     0.011000
INFLOW@23916015  3:60     0.011000
INFLOW@23916015  5:00     0.011290
INFLOW@23916015  6:00     0.013570
INFLOW@23916015  6:60     0.020000
INFLOW@23916015  8:00     0.018580
INFLOW@23916015  9:00     0.016430
INFLOW@23916015  9:60     0.015570
INFLOW@23916015  11:00     0.015860
INFLOW@23916015  12:00     0.014720
INFLOW@23916015  12:60     0.014150
INFLOW@23916015  14:00     0.014430
INFLOW@23916015  15:00     0.015720
INFLOW@23916015  15:60     0.013290
INFLOW@23916015  17:00     0.014150
INFLOW@23916015  18:00     0.015000
INFLOW@23916015  18:60     0.015290
INFLOW@23916015  20:00     0.015430
INFLOW@23916015  21:00     0.014860
INFLOW@23916015  21:60     0.013000
INFLOW@23916015  23:00     0.013150
INFLOW@23916015  24:00     0.011720
INFLOW@23916003  0:00     0.006610
INFLOW@23916003  0:60     0.006450
INFLOW@23916003  2:00     0.006200
INFLOW@23916003  3:00     0.006200
INFLOW@23916003  3:60     0.006200
INFLOW@23916003  5:00     0.006370
INFLOW@23916003  6:00     0.007650
INFLOW@23916003  6:60     0.011280
INFLOW@23916003  8:00     0.010470
INFLOW@23916003  9:00     0.009270
INFLOW@23916003  9:60     0.008780
INFLOW@23916003  11:00     0.008940
INFLOW@23916003  12:00     0.008300
INFLOW@23916003  12:60     0.007980
INFLOW@23916003  14:00     0.008140
INFLOW@23916003  15:00     0.008860
INFLOW@23916003  15:60     0.007490
INFLOW@23916003  17:00     0.007980
INFLOW@23916003  18:00     0.008460
INFLOW@23916003  18:60     0.008620
INFLOW@23916003  20:00     0.008700
INFLOW@23916003  21:00     0.008380
INFLOW@23916003  21:60     0.007330
INFLOW@23916003  23:00     0.007410
INFLOW@23916003  24:00     0.006610
INFLOW@23916008  0:00     0.097230
INFLOW@23916008  0:60     0.094860
INFLOW@23916008  2:00     0.091310
INFLOW@23916008  3:00     0.091310
INFLOW@23916008  3:60     0.091310
INFLOW@23916008  5:00     0.093680
INFLOW@23916008  6:00     0.112650
INFLOW@23916008  6:60     0.166010
INFLOW@23916008  8:00     0.154150
INFLOW@23916008  9:00     0.136370
INFLOW@23916008  9:60     0.129250
INFLOW@23916008  11:00     0.131620
INFLOW@23916008  12:00     0.122140
INFLOW@23916008  12:60     0.117390
INFLOW@23916008  14:00     0.119760
INFLOW@23916008  15:00     0.130440
INFLOW@23916008  15:60     0.110280
INFLOW@23916008  17:00     0.117390
INFLOW@23916008  18:00     0.124510
INFLOW@23916008  18:60     0.126880
INFLOW@23916008  20:00     0.128070
INFLOW@23916008  21:00     0.123320
INFLOW@23916008  21:60     0.107910
INFLOW@23916008  23:00     0.109090
INFLOW@23916008  24:00     0.097230
INFLOW@20712009  0:00     0.091170
INFLOW@20712009  0:60     0.088940
INFLOW@20712009  2:00     0.085610
INFLOW@20712009  3:00     0.085610
INFLOW@20712009  3:60     0.085610
INFLOW@20712009  5:00     0.087830
INFLOW@20712009  6:00     0.105620
INFLOW@20712009  6:60     0.155650
INFLOW@20712009  8:00     0.144540
INFLOW@20712009  9:00     0.127860
INFLOW@20712009  9:60     0.121190
INFLOW@20712009  11:00     0.123410
INFLOW@20712009  12:00     0.114520
INFLOW@20712009  12:60     0.110070
INFLOW@20712009  14:00     0.112290
INFLOW@20712009  15:00     0.122300
INFLOW@20712009  15:60     0.103400
INFLOW@20712009  17:00     0.110070
INFLOW@20712009  18:00     0.116740
INFLOW@20712009  18:60     0.118960
INFLOW@20712009  20:00     0.120080
INFLOW@20712009  21:00     0.115630
INFLOW@20712009  21:60     0.101170
INFLOW@20712009  23:00     0.102290
INFLOW@20712009  24:00     0.091170
INFLOW@20712010  0:00     0.007040
INFLOW@20712010  0:60     0.006860
INFLOW@20712010  2:00     0.006610
INFLOW@20712010  3:00     0.006610
INFLOW@20712010  3:60     0.006610
INFLOW@20712010  5:00     0.006780
INFLOW@20712010  6:00     0.008150
INFLOW@20712010  6:60     0.012010
INFLOW@20712010  8:00     0.011160
INFLOW@20712010  9:00     0.009870
INFLOW@20712010  9:60     0.009350
INFLOW@20712010  11:00     0.009520
INFLOW@20712010  12:00     0.008840
INFLOW@20712010  12:60     0.008500
INFLOW@20712010  14:00     0.008670
INFLOW@20712010  15:00     0.009440
INFLOW@20712010  15:60     0.007980
INFLOW@20712010  17:00     0.008500
INFLOW@20712010  18:00     0.009010
INFLOW@20712010  18:60     0.009180
INFLOW@20712010  20:00     0.009270
INFLOW@20712010  21:00     0.008920
INFLOW@20712010  21:60     0.007810
INFLOW@20712010  23:00     0.007890
INFLOW@20712010  24:00     0.007040
INFLOW@23808013  0:00     0.004800
INFLOW@23808013  0:60     0.004680
INFLOW@23808013  2:00     0.004510
INFLOW@23808013  3:00     0.004510
INFLOW@23808013  3:60     0.004510
INFLOW@23808013  5:00     0.004620
INFLOW@23808013  6:00     0.005560
INFLOW@23808013  6:60     0.008200
INFLOW@23808013  8:00     0.007610
INFLOW@23808013  9:00     0.006730
INFLOW@23808013  9:60     0.006380
INFLOW@23808013  11:00     0.006500
INFLOW@23808013  12:00     0.006030
INFLOW@23808013  12:60     0.005800
INFLOW@23808013  14:00     0.005910
INFLOW@23808013  15:00     0.006440
INFLOW@23808013  15:60     0.005440
INFLOW@23808013  17:00     0.005800
INFLOW@23808013  18:00     0.006150
INFLOW@23808013  18:60     0.006260
INFLOW@23808013  20:00     0.006320
INFLOW@23808013  21:00     0.006090
INFLOW@23808013  21:60     0.005330
INFLOW@23808013  23:00     0.005390
INFLOW@23808013  24:00     0.004800
INFLOW@23808030  0:00     0.006650
INFLOW@23808030  0:60     0.006480
INFLOW@23808030  2:00     0.006240
INFLOW@23808030  3:00     0.006240
INFLOW@23808030  3:60     0.006240
INFLOW@23808030  5:00     0.006400
INFLOW@23808030  6:00     0.007700
INFLOW@23808030  6:60     0.011350
INFLOW@23808030  8:00     0.010540
INFLOW@23808030  9:00     0.009320
INFLOW@23808030  9:60     0.008840
INFLOW@23808030  11:00     0.009000
INFLOW@23808030  12:00     0.008350
INFLOW@23808030  12:60     0.008020
INFLOW@23808030  14:00     0.008190
INFLOW@23808030  15:00     0.008920
INFLOW@23808030  15:60     0.007540
INFLOW@23808030  17:00     0.008020
INFLOW@23808030  18:00     0.008510
INFLOW@23808030  18:60     0.008670
INFLOW@23808030  20:00     0.008750
INFLOW@23808030  21:00     0.008430
INFLOW@23808030  21:60     0.007380
INFLOW@23808030  23:00     0.007460
INFLOW@23808030  24:00     0.006650
INFLOW@20712011  0:00     0.007500
INFLOW@20712011  0:60     0.007310
INFLOW@20712011  2:00     0.007040
INFLOW@20712011  3:00     0.007040
INFLOW@20712011  3:60     0.007040
INFLOW@20712011  5:00     0.007220
INFLOW@20712011  6:00     0.008690
INFLOW@20712011  6:60     0.012800
INFLOW@20712011  8:00     0.011890
INFLOW@20712011  9:00     0.010510
INFLOW@20712011  9:60     0.009970
INFLOW@20712011  11:00     0.010150
INFLOW@20712011  12:00     0.009420
INFLOW@20712011  12:60     0.009050
INFLOW@20712011  14:00     0.009230
INFLOW@20712011  15:00     0.010060
INFLOW@20712011  15:60     0.008500
INFLOW@20712011  17:00     0.009050
INFLOW@20712011  18:00     0.009600
INFLOW@20712011  18:60     0.009780
INFLOW@20712011  20:00     0.009870
INFLOW@20712011  21:00     0.009510
INFLOW@20712011  21:60     0.008320
INFLOW@20712011  23:00     0.008410
INFLOW@20712011  24:00     0.007500
INFLOW@23809003  0:00     0.010730
INFLOW@23809003  0:60     0.010470
INFLOW@23809003  2:00     0.010080
INFLOW@23809003  3:00     0.010080
INFLOW@23809003  3:60     0.010080
INFLOW@23809003  5:00     0.010340
INFLOW@23809003  6:00     0.012430
INFLOW@23809003  6:60     0.018320
INFLOW@23809003  8:00     0.017010
INFLOW@23809003  9:00     0.015050
INFLOW@23809003  9:60     0.014260
INFLOW@23809003  11:00     0.014520
INFLOW@23809003  12:00     0.013480
INFLOW@23809003  12:60     0.012950
INFLOW@23809003  14:00     0.013220
INFLOW@23809003  15:00     0.014390
INFLOW@23809003  15:60     0.012170
INFLOW@23809003  17:00     0.012950
INFLOW@23809003  18:00     0.013740
INFLOW@23809003  18:60     0.014000
INFLOW@23809003  20:00     0.014130
INFLOW@23809003  21:00     0.013610
INFLOW@23809003  21:60     0.011910
INFLOW@23809003  23:00     0.012040
INFLOW@23809003  24:00     0.010730
INFLOW@23702027  0:00     0.044070
INFLOW@23702027  0:60     0.043000
INFLOW@23702027  2:00     0.041390
INFLOW@23702027  3:00     0.041390
INFLOW@23702027  3:60     0.041390
INFLOW@23702027  5:00     0.042460
INFLOW@23702027  6:00     0.051060
INFLOW@23702027  6:60     0.075250
INFLOW@23702027  8:00     0.069870
INFLOW@23702027  9:00     0.061810
INFLOW@23702027  9:60     0.058590
INFLOW@23702027  11:00     0.059660
INFLOW@23702027  12:00     0.055360
INFLOW@23702027  12:60     0.053210
INFLOW@23702027  14:00     0.054290
INFLOW@23702027  15:00     0.059120
INFLOW@23702027  15:60     0.049990
INFLOW@23702027  17:00     0.053210
INFLOW@23702027  18:00     0.056440
INFLOW@23702027  18:60     0.057510
INFLOW@23702027  20:00     0.058050
INFLOW@23702027  21:00     0.055900
INFLOW@23702027  21:60     0.048910
INFLOW@23702027  23:00     0.049450
INFLOW@23702027  24:00     0.044070
INFLOW@23703003  0:00     0.011310
INFLOW@23703003  0:60     0.011030
INFLOW@23703003  2:00     0.010620
INFLOW@23703003  3:00     0.010620
INFLOW@23703003  3:60     0.010620
INFLOW@23703003  5:00     0.010900
INFLOW@23703003  6:00     0.013100
INFLOW@23703003  6:60     0.019310
INFLOW@23703003  8:00     0.017930
INFLOW@23703003  9:00     0.015860
INFLOW@23703003  9:60     0.015030
INFLOW@23703003  11:00     0.015310
INFLOW@23703003  12:00     0.014210
INFLOW@23703003  12:60     0.013650
INFLOW@23703003  14:00     0.013930
INFLOW@23703003  15:00     0.015170
INFLOW@23703003  15:60     0.012830
INFLOW@23703003  17:00     0.013650
INFLOW@23703003  18:00     0.014480
INFLOW@23703003  18:60     0.014760
INFLOW@23703003  20:00     0.014900
INFLOW@23703003  21:00     0.014340
INFLOW@23703003  21:60     0.012550
INFLOW@23703003  23:00     0.012690
INFLOW@23703003  24:00     0.011310
INFLOW@20704016  0:00     0.014600
INFLOW@20704016  0:60     0.014250
INFLOW@20704016  2:00     0.013710
INFLOW@20704016  3:00     0.013710
INFLOW@20704016  3:60     0.013710
INFLOW@20704016  5:00     0.014070
INFLOW@20704016  6:00     0.016920
INFLOW@20704016  6:60     0.024930
INFLOW@20704016  8:00     0.023150
INFLOW@20704016  9:00     0.020480
INFLOW@20704016  9:60     0.019410
INFLOW@20704016  11:00     0.019770
INFLOW@20704016  12:00     0.018340
INFLOW@20704016  12:60     0.017630
INFLOW@20704016  14:00     0.017990
INFLOW@20704016  15:00     0.019590
INFLOW@20704016  15:60     0.016560
INFLOW@20704016  17:00     0.017630
INFLOW@20704016  18:00     0.018700
INFLOW@20704016  18:60     0.019060
INFLOW@20704016  20:00     0.019230
INFLOW@20704016  21:00     0.018520
INFLOW@20704016  21:60     0.016210
INFLOW@20704016  23:00     0.016380
INFLOW@20704016  24:00     0.014600
INFLOW@23916025  0:00     0.028590
INFLOW@23916025  0:60     0.027890
INFLOW@23916025  2:00     0.026850
INFLOW@23916025  3:00     0.026850
INFLOW@23916025  3:60     0.026850
INFLOW@23916025  5:00     0.027550
INFLOW@23916025  6:00     0.033120
INFLOW@23916025  6:60     0.048820
INFLOW@23916025  8:00     0.045330
INFLOW@23916025  9:00     0.040100
INFLOW@23916025  9:60     0.038010
INFLOW@23916025  11:00     0.038700
INFLOW@23916025  12:00     0.035910
INFLOW@23916025  12:60     0.034520
INFLOW@23916025  14:00     0.035220
INFLOW@23916025  15:00     0.038360
INFLOW@23916025  15:60     0.032430
INFLOW@23916025  17:00     0.034520
INFLOW@23916025  18:00     0.036610
INFLOW@23916025  18:60     0.037310
INFLOW@23916025  20:00     0.037660
INFLOW@23916025  21:00     0.036260
INFLOW@23916025  21:60     0.031730
INFLOW@23916025  23:00     0.032080
INFLOW@23916025  24:00     0.028590
INFLOW@23811005  0:00     0.107760
INFLOW@23811005  0:60     0.105130
INFLOW@23811005  2:00     0.101190
INFLOW@23811005  3:00     0.101190
INFLOW@23811005  3:60     0.101190
INFLOW@23811005  5:00     0.103810
INFLOW@23811005  6:00     0.124840
INFLOW@23811005  6:60     0.183970
INFLOW@23811005  8:00     0.170830
INFLOW@23811005  9:00     0.151120
INFLOW@23811005  9:60     0.143240
INFLOW@23811005  11:00     0.145860
INFLOW@23811005  12:00     0.135350
INFLOW@23811005  12:60     0.130100
INFLOW@23811005  14:00     0.132720
INFLOW@23811005  15:00     0.144550
INFLOW@23811005  15:60     0.122210
INFLOW@23811005  17:00     0.130100
INFLOW@23811005  18:00     0.137980
INFLOW@23811005  18:60     0.140610
INFLOW@23811005  20:00     0.141920
INFLOW@23811005  21:00     0.136670
INFLOW@23811005  21:60     0.119580
INFLOW@23811005  23:00     0.120900
INFLOW@23811005  24:00     0.107760
INFLOW@23815018  0:00     0.002180
INFLOW@23815018  0:60     0.002130
INFLOW@23815018  2:00     0.002050
INFLOW@23815018  3:00     0.002050
INFLOW@23815018  3:60     0.002050
INFLOW@23815018  5:00     0.002100
INFLOW@23815018  6:00     0.002530
INFLOW@23815018  6:60     0.003730
INFLOW@23815018  8:00     0.003460
INFLOW@23815018  9:00     0.003060
INFLOW@23815018  9:60     0.002900
INFLOW@23815018  11:00     0.002960
INFLOW@23815018  12:00     0.002740
INFLOW@23815018  12:60     0.002640
INFLOW@23815018  14:00     0.002690
INFLOW@23815018  15:00     0.002930
INFLOW@23815018  15:60     0.002480
INFLOW@23815018  17:00     0.002640
INFLOW@23815018  18:00     0.002800
INFLOW@23815018  18:60     0.002850
INFLOW@23815018  20:00     0.002880
INFLOW@23815018  21:00     0.002770
INFLOW@23815018  21:60     0.002420
INFLOW@23815018  23:00     0.002450
INFLOW@23815018  24:00     0.002180
INFLOW@23815021  0:00     0.015760
INFLOW@23815021  0:60     0.015380
INFLOW@23815021  2:00     0.014800
INFLOW@23815021  3:00     0.014800
INFLOW@23815021  3:60     0.014800
INFLOW@23815021  5:00     0.015190
INFLOW@23815021  6:00     0.018260
INFLOW@23815021  6:60     0.026910
INFLOW@23815021  8:00     0.024990
INFLOW@23815021  9:00     0.022110
INFLOW@23815021  9:60     0.020950
INFLOW@23815021  11:00     0.021340
INFLOW@23815021  12:00     0.019800
INFLOW@23815021  12:60     0.019030
INFLOW@23815021  14:00     0.019420
INFLOW@23815021  15:00     0.021150
INFLOW@23815021  15:60     0.017880
INFLOW@23815021  17:00     0.019030
INFLOW@23815021  18:00     0.020190
INFLOW@23815021  18:60     0.020570
INFLOW@23815021  20:00     0.020760
INFLOW@23815021  21:00     0.019990
INFLOW@23815021  21:60     0.017490
INFLOW@23815021  23:00     0.017690
INFLOW@23815021  24:00     0.015760
RainSeries1      0:00     0.000000
RainSeries1      0:05     0.000000
RainSeries1      0:10     0.000000
RainSeries1      0:15     0.000000
RainSeries1      0:20     0.000000
RainSeries1      0:25     0.000000
RainSeries1      0:30     0.000000
RainSeries1      0:35     0.000000
RainSeries1      0:40     0.000000
RainSeries1      0:45     0.000000
RainSeries1      0:50     0.000000
RainSeries1      0:55     0.000000
RainSeries1      0:60     0.000000
RainSeries1      1:05     0.000000
RainSeries1      1:10     0.000000
RainSeries1      1:15     0.000000
RainSeries1      1:20     0.000000
RainSeries1      1:25     0.000000
RainSeries1      1:30     0.000000
RainSeries1      1:35     0.000000
RainSeries1      1:40     0.000000
RainSeries1      1:45     0.000000
RainSeries1      1:50     0.000000
RainSeries1      1:55     0.000000
RainSeries1      2:00     0.000000
RainSeries1      2:05     0.000000
RainSeries1      2:10     0.000000
RainSeries1      2:15     0.000000
RainSeries1      2:20     0.000000
RainSeries1      2:25     0.000000
RainSeries1      2:30     0.000000
RainSeries1      2:35     0.000000
RainSeries1      2:40     0.000000
RainSeries1      2:45     0.000000
RainSeries1      2:50     0.000000
RainSeries1      2:55     0.000000
RainSeries1      3:00     0.000000
RainSeries1      3:05     0.000000
RainSeries1      3:10     0.000000
RainSeries1      3:15     0.000000
RainSeries1      3:20     0.000000
RainSeries1      3:25     0.000000
RainSeries1      3:30     0.000000
RainSeries1      3:35     0.000000
RainSeries1      3:40     0.000000
RainSeries1      3:45     0.000000
RainSeries1      3:50     0.000000
RainSeries1      3:55     0.000000
RainSeries1      3:60     0.000000
RainSeries1      4:05     0.000000
RainSeries1      4:10     0.000000
RainSeries1      4:15     0.000000
RainSeries1      4:20     0.000000
RainSeries1      4:25     0.000000
RainSeries1      4:30     0.000000
RainSeries1      4:35     0.000000
RainSeries1      4:40     0.000000
RainSeries1      4:45     0.000000
RainSeries1      4:50     0.000000
RainSeries1      4:55     0.000000
RainSeries1      5:00     0.000000
RainSeries1      5:05     0.000000
RainSeries1      5:10     0.000000
RainSeries1      5:15     0.000000
RainSeries1      5:20     0.000000
RainSeries1      5:25     0.000000
RainSeries1      5:30     0.000000
RainSeries1      5:35     0.000000
RainSeries1      5:40     0.000000
RainSeries1      5:45     0.000000
RainSeries1      5:50     0.000000
RainSeries1      5:55     0.000000
RainSeries1      6:00     0.000000
RainSeries1      6:05     0.000000
RainSeries1      6:10     0.000000
RainSeries1      6:15     0.000000
RainSeries1      6:20     0.000000
RainSeries1      6:25     0.000000
RainSeries1      6:30     0.000000
RainSeries1      6:35     0.000000
RainSeries1      6:40     0.001000
RainSeries1      6:45     0.001000
RainSeries1      6:50     0.001000
RainSeries1      6:55     0.002000
RainSeries1      6:60     0.002000
RainSeries1      7:05     0.002000
RainSeries1      7:10     0.003000
RainSeries1      7:15     0.006000
RainSeries1      7:20     0.012000
RainSeries1      7:25     0.017000
RainSeries1      7:30     0.017000
RainSeries1      7:35     0.019000
RainSeries1      7:40     0.018000
RainSeries1      7:45     0.017000
RainSeries1      7:50     0.017000
RainSeries1      7:55     0.022000
RainSeries1      8:00     0.019000
RainSeries1      8:05     0.016000
RainSeries1      8:10     0.019000
RainSeries1      8:15     0.025000
RainSeries1      8:20     0.028000
RainSeries1      8:25     0.021000
RainSeries1      8:30     0.007000
RainSeries1      8:35     0.006000
RainSeries1      8:40     0.006000
RainSeries1      8:45     0.008000
RainSeries1      8:50     0.009000
RainSeries1      8:55     0.009000
RainSeries1      9:00     0.007000
RainSeries1      9:05     0.013000
RainSeries1      9:10     0.034000
RainSeries1      9:15     0.039000
RainSeries1      9:20     0.032000
RainSeries1      9:25     0.028000
RainSeries1      9:30     0.032000
RainSeries1      9:35     0.037000
RainSeries1      9:40     0.050000
RainSeries1      9:45     0.042000
RainSeries1      9:50     0.023000
RainSeries1      9:55     0.017000
RainSeries1      9:60     0.019000
RainSeries1      10:05     0.022000
RainSeries1      10:10     0.042000
RainSeries1      10:15     0.048000
RainSeries1      10:20     0.034000
RainSeries1      10:25     0.028000
RainSeries1      10:30     0.026000
RainSeries1      10:35     0.027000
RainSeries1      10:40     0.041000
RainSeries1      10:45     0.102000
RainSeries1      10:50     0.095000
RainSeries1      10:55     0.051000
RainSeries1      11:00     0.030000
RainSeries1      11:05     0.018000
RainSeries1      11:10     0.006000
RainSeries1      11:15     0.005000
RainSeries1      11:20     0.002000
RainSeries1      11:25     0.001000
RainSeries1      11:30     0.000000
RainSeries1      11:35     0.000000
RainSeries1      11:40     0.000000
RainSeries1      11:45     0.000000
RainSeries1      11:50     0.000000
RainSeries1      11:55     0.000000
RainSeries1      12:00     0.000000
RainSeries1      12:05     0.000000
RainSeries1      12:10     0.000000
RainSeries1      12:15     0.000000
RainSeries1      12:20     0.000000
RainSeries1      12:25     0.000000
RainSeries1      12:30     0.000000
RainSeries1      12:35     0.000000
RainSeries1      12:40     0.000000
RainSeries1      12:45     0.000000
RainSeries1      12:50     0.000000
RainSeries1      12:55     0.000000
RainSeries1      12:60     0.000000
RainSeries1      13:05     0.000000
RainSeries1      13:10     0.000000
RainSeries1      13:15     0.000000
RainSeries1      13:20     0.000000
RainSeries1      13:25     0.000000
RainSeries1      13:30     0.000000
RainSeries1      13:35     0.000000
RainSeries1      13:40     0.000000
RainSeries1      13:45     0.000000
RainSeries1      13:50     0.000000
RainSeries1      13:55     0.000000
RainSeries1      14:00     0.000000
RainSeries1      14:05     0.000000
RainSeries1      14:10     0.000000
RainSeries1      14:15     0.000000
RainSeries1      14:20     0.000000
RainSeries1      14:25     0.000000
RainSeries1      14:30     0.000000
RainSeries1      14:35     0.000000
RainSeries1      14:40     0.000000
RainSeries1      14:45     0.000000
RainSeries1      14:50     0.000000
RainSeries1      14:55     0.000000
RainSeries1      15:00     0.000000
RainSeries1      15:05     0.000000
RainSeries1      15:10     0.000000
RainSeries1      15:15     0.000000
RainSeries1      15:20     0.000000
RainSeries1      15:25     0.000000
RainSeries1      15:30     0.000000
RainSeries1      15:35     0.001000
RainSeries1      15:40     0.001000
RainSeries1      15:45     0.000000
RainSeries1      15:50     0.000000
RainSeries1      15:55     0.000000
RainSeries1      15:60     0.000000
RainSeries1      16:05     0.000000
RainSeries1      16:10     0.000000
RainSeries1      16:15     0.000000
RainSeries1      16:20     0.000000
RainSeries1      16:25     0.000000
RainSeries1      16:30     0.000000
RainSeries1      16:35     0.000000
RainSeries1      16:40     0.000000
RainSeries1      16:45     0.000000
RainSeries1      16:50     0.000000
RainSeries1      16:55     0.000000
RainSeries1      17:00     0.000000
RainSeries1      17:05     0.000000
RainSeries1      17:10     0.000000
RainSeries1      17:15     0.000000
RainSeries1      17:20     0.000000
RainSeries1      17:25     0.000000
RainSeries1      17:30     0.000000
RainSeries1      17:35     0.000000
RainSeries1      17:40     0.000000
RainSeries1      17:45     0.000000
RainSeries1      17:50     0.000000
RainSeries1      17:55     0.000000
RainSeries1      18:00     0.000000
RainSeries1      18:05     0.000000
RainSeries1      18:10     0.000000
RainSeries1      18:15     0.000000
RainSeries1      18:20     0.000000
RainSeries1      18:25     0.000000
RainSeries1      18:30     0.000000
RainSeries1      18:35     0.000000
RainSeries1      18:40     0.000000
RainSeries1      18:45     0.000000
RainSeries1      18:50     0.000000
RainSeries1      18:55     0.000000
RainSeries1      18:60     0.000000
RainSeries1      19:05     0.000000
RainSeries1      19:10     0.000000
RainSeries1      19:15     0.000000
RainSeries1      19:20     0.000000
RainSeries1      19:25     0.000000
RainSeries1      19:30     0.000000
RainSeries1      19:35     0.000000
RainSeries1      19:40     0.000000
RainSeries1      19:45     0.000000
RainSeries1      19:50     0.000000
RainSeries1      19:55     0.000000
RainSeries1      20:00     0.000000
RainSeries1      20:05     0.000000
RainSeries1      20:10     0.000000
RainSeries1      20:15     0.000000
RainSeries1      20:20     0.000000
RainSeries1      20:25     0.000000
RainSeries1      20:30     0.000000
RainSeries1      20:35     0.000000
RainSeries1      20:40     0.000000
RainSeries1      20:45     0.000000
RainSeries1      20:50     0.000000
RainSeries1      20:55     0.000000
RainSeries1      21:00     0.000000
RainSeries1      21:05     0.000000
RainSeries1      21:10     0.000000
RainSeries1      21:15     0.000000
RainSeries1      21:20     0.000000
RainSeries1      21:25     0.000000
RainSeries1      21:30     0.000000
RainSeries1      21:35     0.000000
RainSeries1      21:40     0.000000
RainSeries1      21:45     0.000000
RainSeries1      21:50     0.000000
RainSeries1      21:55     0.000000
RainSeries1      21:60     0.000000
RainSeries1      22:05     0.000000
RainSeries1      22:10     0.000000
RainSeries1      22:15     0.000000
RainSeries1      22:20     0.000000
RainSeries1      22:25     0.000000
RainSeries1      22:30     0.000000
RainSeries1      22:35     0.000000
RainSeries1      22:40     0.000000
RainSeries1      22:45     0.000000
RainSeries1      22:50     0.000000
RainSeries1      22:55     0.000000
RainSeries1      23:00     0.000000
RainSeries1      23:05     0.000000
RainSeries1      23:10     0.000000
RainSeries1      23:15     0.000000
RainSeries1      23:20     0.000000
RainSeries1      23:25     0.000000
RainSeries1      23:30     0.000000
RainSeries1      23:35     0.000000
RainSeries1      23:40     0.000000
RainSeries1      23:45     0.000000
RainSeries1      23:50     0.000000
RainSeries1      23:55     0.000000

[MAP]
DIMENSIONS 1369027.6600       421838.2700        1373374.0100       429215.5200       
Units      NONE

[COORDINATES]
;;Node           X-Coord            Y-Coord           
;;-------------- ------------------ ------------------
20704016         1369320.6300       423104.5900       
20704017         1369546.2500       423063.1900       
20704018         1369775.7500       423043.0000       
20704025         1370004.3800       423023.4100       
20712009         1369479.6300       425264.1900       
20712010         1369708.2500       425243.5900       
20712011         1369896.6300       425226.8100       
20713008         1369976.7500       426643.1900       
23701001         1370586.4400       427120.9000       
23701005         1370783.3800       427335.5900       
23701006         1370862.6300       427322.1900       
23701007         1370907.7500       427315.4100       
23701008         1370935.7500       427441.8100       
23701009         1370969.0000       427574.8100       
23701010         1370972.6300       427596.5900       
23701011         1370999.6300       427712.0000       
23701016         1370865.6300       427597.5900       
23701017         1370951.0000       427108.5900       
23701018         1370824.2500       427138.4100       
23701019         1370869.3800       427310.5900       
23701023         1371240.2500       427513.5900       
23701029         1371032.6300       427855.8100       
23701032         1370862.7500       427582.8100       
23701034         1370018.0000       427042.1900       
23701035         1370800.6300       427348.5900       
23701040         1370561.6800       427093.9100       
23702010         1372255.2500       427066.5900       
23702011         1372221.3800       427115.5900       
23702013         1372213.7500       427162.0000       
23702014         1372180.6300       427173.4100       
23702015         1372130.7500       427245.8100       
23702026         1372227.3800       427293.4400       
23702027         1372258.7500       427309.8100       
23702028         1372445.7500       427293.1900       
23702029         1372636.6300       427276.1900       
23702030         1372229.2500       427312.0000       
23702031         1372249.6300       427516.5900       
23702032         1372260.1300       427622.1300       
23702036         1372266.6300       427686.5900       
23702037         1372099.7500       427882.8100       
23702038         1372284.0000       427856.8100       
23702039         1372292.0000       427926.5900       
23702040         1372301.6300       428024.0000       
23702045         1372173.3800       427025.0000       
23702051         1372214.7700       427171.9500       
23702052         1372215.7200       427181.3000       
23703001         1372845.2500       427256.5900       
23703002         1373012.2500       427242.5900       
23703003         1373102.2500       427233.5900       
23707003         1371641.2500       428234.4100       
23707004         1371819.6300       428217.0000       
23707005         1371951.0000       428084.8100       
23707006         1372027.3800       428067.8100       
23707007         1372174.7500       428357.4100       
23707008         1371659.2500       428405.5900       
23707011         1371979.2500       428375.5900       
23707014         1372319.3800       428201.0000       
23707015         1372336.2500       428373.1900       
23708023         1371341.6300       428436.4100       
23708024         1371305.0000       428424.8100       
23708025         1371306.7500       428439.8100       
23708026         1371308.3800       428455.1900       
23708027         1371336.2500       428726.0000       
23708030         1371353.7500       428880.1900       
23801001         1370227.2500       423178.5900       
23801003         1370476.3800       423141.1900       
23801005         1370513.0300       423271.8400       
23801007         1370301.6300       423958.5900       
23801008         1370297.7500       423922.5900       
23801009         1370285.6300       423792.1900       
23801010         1370271.7500       423655.0000       
23801011         1370503.2600       423636.0400       
23801012         1370702.8700       423617.6100       
23801013         1370696.9000       423508.4000       
23801014         1370511.7500       423945.0000       
23801015         1370686.3800       423929.8100       
23801016         1370864.3800       423916.0000       
23801017         1370842.8600       423694.8000       
23801018         1370856.2500       423681.4100       
23801020         1371028.2500       423298.1900       
23801022         1371043.2500       423446.0000       
23801025         1371059.6300       423594.5900       
23801026         1370880.8100       423677.2800       
23801027         1370864.5000       423689.9100       
23801028         1370959.0000       423907.1900       
23801029         1371056.0000       423897.4100       
23801032         1370523.3800       423310.5900       
23802012         1371881.7500       423918.8100       
23807002         1371480.0000       424149.0000       
23807003         1371490.7500       424136.0000       
23807004         1371535.6300       424132.0000       
23807011         1371768.3800       424484.4100       
23807012         1371948.9000       424623.2600       
23807013         1371963.6300       424802.5900       
23807017         1371907.2500       424178.1900       
23807018         1371924.2500       424355.5900       
23807020         1371925.6300       424474.4100       
23807022         1371912.3800       424492.8100       
23807028         1371533.3800       424483.8100       
23807031         1371989.6300       424626.0000       
23807037         1371931.8400       424434.5300       
23808005         1370756.3800       424245.0000       
23808006         1370918.3800       424399.1900       
23808012         1370978.6300       424557.0000       
23808013         1370030.7500       424839.0000       
23808016         1370614.3800       425000.0000       
23808017         1370633.2500       424966.8100       
23808018         1370799.3800       424766.1900       
23808019         1370989.6300       424049.8100       
23808020         1370994.9900       424118.7700       
23808021         1371017.4300       424338.6600       
23808022         1371023.7500       424553.1900       
23808023         1371025.7500       424682.4100       
23808024         1371023.6300       424718.8100       
23808025         1371038.7500       424882.5900       
23808030         1370039.6300       424942.0000       
23808031         1371021.0000       424389.5900       
23808032         1371375.6300       424141.8100       
23809002         1370621.7500       425153.5900       
23809003         1370067.7500       425211.5900       
23809004         1370241.0000       425196.1900       
23809005         1370408.3800       425180.1900       
23809006         1370432.7500       425194.0000       
23809013         1370623.6300       425185.0000       
23809014         1370629.7500       425489.1900       
23809015         1370550.2500       425782.8100       
23809019         1370594.2500       425632.1900       
23809026         1371054.7500       425054.8100       
23809027         1371070.3800       425226.5900       
23809028         1371088.0000       425394.8100       
23809042         1370646.3800       425442.8100       
23809049         1370623.3800       425180.5900       
23809050         1370623.2500       425178.0600       
23809053         1370549.0700       425944.7800       
23810003         1371991.6300       425325.4100       
23810008         1371987.6300       425043.8100       
23810009         1372013.0100       425280.9100       
23810010         1372017.0000       425318.1900       
23810011         1372042.0000       425547.4100       
23810012         1372068.6300       425788.5900       
23810013         1372092.7500       426023.8100       
23810014         1372160.2500       425303.5900       
23810015         1372200.0000       425297.8100       
23810016         1372368.0000       425274.5900       
23810017         1372528.7500       425253.1900       
23810018         1372689.0000       425231.0000       
23810019         1372206.2500       425501.8100       
23810022         1372227.7500       425697.0000       
23810023         1372248.6300       425891.1900       
23810024         1372266.9800       425891.9200       
23810025         1372409.2500       425869.5900       
23810026         1372442.8400       425883.0600       
23810031         1372224.1300       425663.8100       
23810032         1372096.2500       425311.4100       
23810033         1372247.3800       425879.4100       
23811003         1372849.6300       425209.1900       
23811004         1373007.3800       425188.4100       
23811005         1373146.3800       425227.5900       
23811028         1372818.3800       426009.4100       
23811029         1373005.3800       425983.1900       
23814006         1373155.2500       426426.1900       
23814009         1372834.3800       426451.5900       
23814010         1372996.7500       426438.4100       
23815002         1371621.3800       426104.4100       
23815003         1371650.0000       426389.8100       
23815004         1371668.2500       426559.0000       
23815005         1371685.6300       426728.1900       
23815008         1371650.1500       426077.2600       
23815009         1371901.2500       426054.5900       
23815010         1372065.2700       426041.4100       
23815014         1372107.0000       426162.5900       
23815015         1372133.6300       426410.5900       
23815016         1372170.2500       426747.8100       
23815017         1372197.0000       427014.5900       
23815018         1372137.7100       426102.9700       
23815019         1372236.7500       426088.4100       
23815020         1372267.3800       426084.1900       
23815021         1372288.7500       426298.8100       
23815022         1372310.2500       426508.4100       
23815023         1372328.6300       426684.4100       
23815024         1372351.0000       426890.4100       
23815025         1372460.7500       426056.5900       
23815026         1372640.0000       426033.8100       
23815029         1372673.7500       426463.1900       
23815030         1372581.7500       426596.1900       
23815031         1372483.6300       426736.0000       
23815032         1372426.6300       426818.4100       
23815033         1372394.2500       426864.8100       
23815038         1372263.6300       426045.8100       
23816003         1370563.3000       426076.8900       
23816006         1370581.7400       426248.1000       
23816011         1370584.8800       426388.7400       
23816014         1370530.6300       426594.4100       
23816015         1370434.1800       426770.9100       
23816016         1370503.3800       426943.1900       
23816017         1370245.2500       426619.8100       
23816018         1370261.7500       426992.8100       
23816036         1370575.5700       426524.8900       
23816037         1370585.7100       426425.7300       
23916007         1370293.7500       422461.5900       
23916008         1370383.0000       422454.4100       
23916014         1370193.7500       422749.4100       
23916015         1370363.3800       422722.0000       
23916016         1370412.6300       422730.1900       
23916017         1370525.3800       422720.4100       
23916025         1370234.2500       423002.8100       
23916026         1370430.7500       422976.5900       
23916027         1370474.6300       422982.4100       
23916003         1370275.7000       422281.6000       

[Polygons]
;;Subcatchment   X-Coord            Y-Coord           
;;-------------- ------------------ ------------------
GMMC19CC0001     1372676.4000       426009.4100       
GMMC19CC0001     1372818.3800       426009.4100       
GMMC19CC0001     1372818.3800       425993.6800       
GMMC19CC0001     1372676.4000       425993.6800       
GMMC19CC0002     1371278.6500       428841.8400       
GMMC19CC0002     1371338.4000       428841.8400       
GMMC19CC0002     1371338.4000       428552.2400       
GMMC19CC0002     1371278.6500       428552.2400       
GMMC19CC0003     1371338.4000       428552.2400       
GMMC19CC0003     1371355.2300       428552.2400       
GMMC19CC0003     1371355.2300       428417.9200       
GMMC19CC0003     1371338.4000       428417.9200       
GMMC19CC0004     1371653.7000       428417.9200       
GMMC19CC0004     1371662.8500       428417.9200       
GMMC19CC0004     1371662.8500       428387.5900       
GMMC19CC0004     1371653.7000       428387.5900       
GMMC19CC0005     1371969.8800       428387.5900       
GMMC19CC0005     1371983.4000       428387.5900       
GMMC19CC0005     1371983.4000       428374.1500       
GMMC19CC0005     1371969.8800       428374.1500       
GMMC19CC0006     1372331.6800       428374.1500       
GMMC19CC0006     1372342.1500       428374.1500       
GMMC19CC0006     1372342.1500       428363.7200       
GMMC19CC0006     1372331.6800       428363.7200       
GMMC19CC0007     1372259.3000       427647.9100       
GMMC19CC0007     1372262.7300       427647.9100       
GMMC19CC0007     1372262.7300       427607.4100       
GMMC19CC0007     1372259.3000       427607.4100       
GMMC19CC0008     1372302.9500       428214.3600       
GMMC19CC0008     1372323.0800       428214.3600       
GMMC19CC0008     1372323.0800       428131.2900       
GMMC19CC0008     1372302.9500       428131.2900       
GMMC19CC0009     1372290.0500       427989.8800       
GMMC19CC0009     1372302.9500       427989.8800       
GMMC19CC0009     1372302.9500       427900.3300       
GMMC19CC0009     1372290.0500       427900.3300       
GMMC19CC0010     1372172.0500       428357.4100       
GMMC19CC0010     1372174.7500       428357.4100       
GMMC19CC0010     1372174.7500       428283.6100       
GMMC19CC0010     1372172.0500       428283.6100       
GMMC19CC0011     1372174.7500       428363.7200       
GMMC19CC0011     1372183.6500       428363.7200       
GMMC19CC0011     1372183.6500       428357.4100       
GMMC19CC0011     1372174.7500       428357.4100       
GMMC19CC0012     1371629.3300       428283.6100       
GMMC19CC0012     1371644.7500       428283.6100       
GMMC19CC0012     1371644.7500       428214.3600       
GMMC19CC0012     1371629.3300       428214.3600       
GMMC19CC0013     1371935.7800       428131.2900       
GMMC19CC0013     1371956.0500       428131.2900       
GMMC19CC0013     1371956.0500       427989.8800       
GMMC19CC0013     1371935.7800       427989.8800       
GMMC19CC0014     1372081.0800       427900.3300       
GMMC19CC0014     1372102.6500       427900.3300       
GMMC19CC0014     1372102.6500       427866.6100       
GMMC19CC0014     1372081.0800       427866.6100       
GMMC19CC0015     1372262.7300       427696.7600       
GMMC19CC0015     1372275.4800       427696.7600       
GMMC19CC0015     1372275.4800       427647.9100       
GMMC19CC0015     1372262.7300       427647.9100       
GMMC19CC0016     1371030.0000       427866.6100       
GMMC19CC0016     1371035.0800       427866.6100       
GMMC19CC0016     1371035.0800       427769.5300       
GMMC19CC0016     1371030.0000       427769.5300       
GMMC19CC0017     1370993.6300       427769.5300       
GMMC19CC0017     1371009.2300       427769.5300       
GMMC19CC0017     1371009.2300       427696.7600       
GMMC19CC0017     1370993.6300       427696.7600       
GMMC19CC0018     1370826.6300       427607.4100       
GMMC19CC0018     1370867.1300       427607.4100       
GMMC19CC0018     1370867.1300       427547.1900       
GMMC19CC0018     1370826.6300       427547.1900       
GMMC19CC0019     1371148.9000       427547.1900       
GMMC19CC0019     1371278.6500       427547.1900       
GMMC19CC0019     1371278.6500       427470.5300       
GMMC19CC0019     1371148.9000       427470.5300       
GMMC19CC0020     1370902.7900       427470.5300       
GMMC19CC0020     1370941.8500       427470.5300       
GMMC19CC0020     1370941.8500       427385.8800       
GMMC19CC0020     1370902.7900       427385.8800       
GMMC19CC0021     1370774.0800       427385.8800       
GMMC19CC0021     1370826.6300       427385.8800       
GMMC19CC0021     1370826.6300       427325.7900       
GMMC19CC0021     1370774.0800       427325.7900       
GMMC19CC0022     1370867.1300       427325.7900       
GMMC19CC0022     1370873.9500       427325.7900       
GMMC19CC0022     1370873.9500       427310.1300       
GMMC19CC0022     1370867.1300       427310.1300       
GMMC19CC0023     1370586.0000       427165.9800       
GMMC19CC0023     1370589.5600       427165.9800       
GMMC19CC0023     1370589.5600       427113.5200       
GMMC19CC0023     1370586.0000       427113.5200       
GMMC19CC0024     1369993.2500       427068.7500       
GMMC19CC0024     1370023.1000       427068.7500       
GMMC19CC0024     1370023.1000       427025.6300       
GMMC19CC0024     1369993.2500       427025.6300       
GMMC19CC0025     1369928.6800       426659.6800       
GMMC19CC0025     1369993.2500       426659.6800       
GMMC19CC0025     1369993.2500       426614.9900       
GMMC19CC0025     1369928.6800       426614.9900       
GMMC19CC0026     1370583.3200       426425.9100       
GMMC19CC0026     1370586.0000       426425.9100       
GMMC19CC0026     1370586.0000       426416.6500       
GMMC19CC0026     1370583.3200       426416.6500       
GMMC19CC0027     1370562.8400       426268.3800       
GMMC19CC0027     1370583.3200       426268.3800       
GMMC19CC0027     1370583.3200       426196.8000       
GMMC19CC0027     1370562.8400       426196.8000       
GMMC19CC0028     1370534.8500       425960.1400       
GMMC19CC0028     1370549.5400       425960.1400       
GMMC19CC0028     1370549.5400       425907.7400       
GMMC19CC0028     1370534.8500       425907.7400       
GMMC19CC0029     1370549.5400       425785.1300       
GMMC19CC0029     1370562.8400       425785.1300       
GMMC19CC0029     1370562.8400       425692.4400       
GMMC19CC0029     1370549.5400       425692.4400       
GMMC19CC0030     1370589.5600       425692.4400       
GMMC19CC0030     1370602.3000       425692.4400       
GMMC19CC0030     1370602.3000       425581.3200       
GMMC19CC0030     1370589.5600       425581.3200       
GMMC19CC0031     1370625.9300       425494.2400       
GMMC19CC0031     1370656.6100       425494.2400       
GMMC19CC0031     1370656.6100       425432.5600       
GMMC19CC0031     1370625.9300       425432.5600       
GMMC19CC0032     1370236.9500       425201.3900       
GMMC19CC0032     1370254.8800       425201.3900       
GMMC19CC0032     1370254.8800       425191.5200       
GMMC19CC0032     1370236.9500       425191.5200       
GMMC19CC0033     1370381.3800       425180.3500       
GMMC19CC0033     1370417.3300       425180.3500       
GMMC19CC0033     1370417.3300       425104.9600       
GMMC19CC0033     1370381.3800       425104.9600       
GMMC19CC0034     1370617.9800       425183.7200       
GMMC19CC0034     1370625.9300       425183.7200       
GMMC19CC0034     1370625.9300       425180.3500       
GMMC19CC0034     1370617.9800       425180.3500       
GMMC19CC0035     1370602.3000       425021.9300       
GMMC19CC0035     1370617.9800       425021.9300       
GMMC19CC0035     1370617.9800       424965.2000       
GMMC19CC0035     1370602.3000       424965.2000       
GMMC19CC0036     1370941.8500       427113.5200       
GMMC19CC0036     1370954.2000       427113.5200       
GMMC19CC0036     1370954.2000       427068.7500       
GMMC19CC0036     1370941.8500       427068.7500       
GMMC19CC0037     1372116.5000       427271.4100       
GMMC19CC0037     1372131.9000       427271.4100       
GMMC19CC0037     1372131.9000       427238.4800       
GMMC19CC0037     1372116.5000       427238.4800       
GMMC19CC0038     1372183.6500       427025.6300       
GMMC19CC0038     1372200.7000       427025.6300       
GMMC19CC0038     1372200.7000       426940.0800       
GMMC19CC0038     1372183.6500       426940.0800       
GMMC19CC0039     1372164.2500       426776.0500       
GMMC19CC0039     1372172.0500       426776.0500       
GMMC19CC0039     1372172.0500       426736.0400       
GMMC19CC0039     1372164.2500       426736.0400       
GMMC19CC0040     1372131.9000       426416.6500       
GMMC19CC0040     1372144.2800       426416.6500       
GMMC19CC0040     1372144.2800       426398.1300       
GMMC19CC0040     1372131.9000       426398.1300       
GMMC19CC0041     1371675.2000       426736.0400       
GMMC19CC0041     1371764.0800       426736.0400       
GMMC19CC0041     1371764.0800       426701.9200       
GMMC19CC0041     1371675.2000       426701.9200       
GMMC19CC0042     1371662.8500       426573.8800       
GMMC19CC0042     1371675.2000       426573.8800       
GMMC19CC0042     1371675.2000       426494.5600       
GMMC19CC0042     1371662.8500       426494.5600       
GMMC19CC0043     1371644.7500       426398.1300       
GMMC19CC0043     1371653.7000       426398.1300       
GMMC19CC0043     1371653.7000       426335.2100       
GMMC19CC0043     1371644.7500       426335.2100       
GMMC19CC0044     1371569.9300       426127.6800       
GMMC19CC0044     1371629.3300       426127.6800       
GMMC19CC0044     1371629.3300       426075.7200       
GMMC19CC0044     1371569.9300       426075.7200       
GMMC19CC0045     1372102.6500       426196.8000       
GMMC19CC0045     1372116.5000       426196.8000       
GMMC19CC0045     1372116.5000       426127.6800       
GMMC19CC0045     1372102.6500       426127.6800       
GMMC19CC0046     1371077.4300       425432.5600       
GMMC19CC0046     1371148.9000       425432.5600       
GMMC19CC0046     1371148.9000       425348.8400       
GMMC19CC0046     1371077.4300       425348.8400       
GMMC19CC0047     1371063.9300       425226.6800       
GMMC19CC0047     1371077.4300       425226.6800       
GMMC19CC0047     1371077.4300       425217.5900       
GMMC19CC0047     1371063.9300       425217.5900       
GMMC19CC0048     1373123.4500       426436.3500       
GMMC19CC0048     1373176.4500       426436.3500       
GMMC19CC0048     1373176.4500       426425.9100       
GMMC19CC0048     1373123.4500       426425.9100       
GMMC19CC0049     1372911.9300       425993.6800       
GMMC19CC0049     1373006.1800       425993.6800       
GMMC19CC0049     1373006.1800       425960.1400       
GMMC19CC0049     1372911.9300       425960.1400       
GMMC19CC0050     1372824.7800       426494.5600       
GMMC19CC0050     1372840.4800       426494.5600       
GMMC19CC0050     1372840.4800       426436.3500       
GMMC19CC0050     1372824.7800       426436.3500       
GMMC19CC0051     1372818.3800       426027.4800       
GMMC19CC0051     1372824.7800       426027.4800       
GMMC19CC0051     1372824.7800       426009.4100       
GMMC19CC0051     1372818.3800       426009.4100       
GMMC19CC0052     1372450.0000       426075.7200       
GMMC19CC0052     1372509.1500       426075.7200       
GMMC19CC0052     1372509.1500       426055.3900       
GMMC19CC0052     1372450.0000       426055.3900       
GMMC19CC0053     1372433.1100       425907.7400       
GMMC19CC0053     1372450.0000       425907.7400       
GMMC19CC0053     1372450.0000       425826.3800       
GMMC19CC0053     1372433.1100       425826.3800       
GMMC19CC0054     1372509.1500       426614.9900       
GMMC19CC0054     1372676.4000       426614.9900       
GMMC19CC0054     1372676.4000       426573.8800       
GMMC19CC0054     1372509.1500       426573.8800       
GMMC19CC0055     1372391.4500       426847.2100       
GMMC19CC0055     1372433.1100       426847.2100       
GMMC19CC0055     1372433.1100       426776.0500       
GMMC19CC0055     1372391.4500       426776.0500       
GMMC19CC0056     1372342.1500       426940.0800       
GMMC19CC0056     1372357.8000       426940.0800       
GMMC19CC0056     1372357.8000       426847.2100       
GMMC19CC0056     1372342.1500       426847.2100       
GMMC19CC0057     1372323.0800       426701.9200       
GMMC19CC0057     1372331.6800       426701.9200       
GMMC19CC0057     1372331.6800       426659.6800       
GMMC19CC0057     1372323.0800       426659.6800       
GMMC19CC0058     1372275.4800       426335.2100       
GMMC19CC0058     1372290.0500       426335.2100       
GMMC19CC0058     1372290.0500       426268.3800       
GMMC19CC0058     1372275.4800       426268.3800       
GMMC19CC0059     1371889.5500       426055.3900       
GMMC19CC0059     1371903.6500       426055.3900       
GMMC19CC0059     1371903.6500       426027.4800       
GMMC19CC0059     1371889.5500       426027.4800       
GMMC19CC0060     1372052.6500       425826.3800       
GMMC19CC0060     1372081.0800       425826.3800       
GMMC19CC0060     1372081.0800       425785.1300       
GMMC19CC0060     1372052.6500       425785.1300       
GMMC19CC0061     1372027.0000       425581.3200       
GMMC19CC0061     1372052.6500       425581.3200       
GMMC19CC0061     1372052.6500       425520.0500       
GMMC19CC0061     1372027.0000       425520.0500       
GMMC19CC0062     1372200.7000       425520.0500       
GMMC19CC0062     1372227.2500       425520.0500       
GMMC19CC0062     1372227.2500       425494.2400       
GMMC19CC0062     1372200.7000       425494.2400       
GMMC19CC0063     1373006.1800       425191.5200       
GMMC19CC0063     1373045.3300       425191.5200       
GMMC19CC0063     1373045.3300       425183.7200       
GMMC19CC0063     1373006.1800       425183.7200       
GMMC19CC0064     1372840.4800       425210.1500       
GMMC19CC0064     1372911.9300       425210.1500       
GMMC19CC0064     1372911.9300       425201.3900       
GMMC19CC0064     1372840.4800       425201.3900       
GMMC19CC0065     1372357.8000       425277.1200       
GMMC19CC0065     1372391.4500       425277.1200       
GMMC19CC0065     1372391.4500       425268.3500       
GMMC19CC0065     1372357.8000       425268.3500       
GMMC19CC0066     1372144.2800       425309.4300       
GMMC19CC0066     1372164.2500       425309.4300       
GMMC19CC0066     1372164.2500       425289.9800       
GMMC19CC0066     1372144.2800       425289.9800       
GMMC19CC0067     1372014.6100       425348.8400       
GMMC19CC0067     1372027.0000       425348.8400       
GMMC19CC0067     1372027.0000       425309.4300       
GMMC19CC0067     1372014.6100       425309.4300       
GMMC19CC0068     1371998.9800       425289.9800       
GMMC19CC0068     1372014.6100       425289.9800       
GMMC19CC0068     1372014.6100       425277.1200       
GMMC19CC0068     1371998.9800       425277.1200       
GMMC19CC0069     1371956.0500       424817.1600       
GMMC19CC0069     1371969.8800       424817.1600       
GMMC19CC0069     1371969.8800       424752.3300       
GMMC19CC0069     1371956.0500       424752.3300       
GMMC19CC0070     1371764.0800       423929.2900       
GMMC19CC0070     1371889.5500       423929.2900       
GMMC19CC0070     1371889.5500       423911.8400       
GMMC19CC0070     1371764.0800       423911.8400       
GMMC19CC0071     1371903.6500       424204.9100       
GMMC19CC0071     1371914.0500       424204.9100       
GMMC19CC0071     1371914.0500       424156.3600       
GMMC19CC0071     1371903.6500       424156.3600       
GMMC19CC0072     1371914.0500       424403.1200       
GMMC19CC0072     1371924.8000       424403.1200       
GMMC19CC0072     1371924.8000       424289.2400       
GMMC19CC0072     1371914.0500       424289.2400       
GMMC19CC0073     1371924.8000       424478.1700       
GMMC19CC0073     1371935.7800       424478.1700       
GMMC19CC0073     1371935.7800       424403.1200       
GMMC19CC0073     1371924.8000       424403.1200       
GMMC19CC0074     1371983.4000       424663.1300       
GMMC19CC0074     1371998.9800       424663.1300       
GMMC19CC0074     1371998.9800       424582.3100       
GMMC19CC0074     1371983.4000       424582.3100       
GMMC19CC0075     1371045.1500       425104.9600       
GMMC19CC0075     1371056.7000       425104.9600       
GMMC19CC0075     1371056.7000       425021.9300       
GMMC19CC0075     1371045.1500       425021.9300       
GMMC19CC0076     1371035.0800       424906.3600       
GMMC19CC0076     1371045.1500       424906.3600       
GMMC19CC0076     1371045.1500       424856.4400       
GMMC19CC0076     1371035.0800       424856.4400       
GMMC19CC0077     1371009.2300       424752.3300       
GMMC19CC0077     1371023.6800       424752.3300       
GMMC19CC0077     1371023.6800       424663.1300       
GMMC19CC0077     1371009.2300       424663.1300       
GMMC19CC0078     1371023.6800       424582.3100       
GMMC19CC0078     1371025.5500       424582.3100       
GMMC19CC0078     1371025.5500       424511.5600       
GMMC19CC0078     1371023.6800       424511.5600       
GMMC19CC0079     1370720.6900       424289.2400       
GMMC19CC0079     1370774.0800       424289.2400       
GMMC19CC0079     1370774.0800       424204.9100       
GMMC19CC0079     1370720.6900       424204.9100       
GMMC19CC0080     1370296.9000       423995.0800       
GMMC19CC0080     1370326.3300       423995.0800       
GMMC19CC0080     1370326.3300       423950.4400       
GMMC19CC0080     1370296.9000       423950.4400       
GMMC19CC0081     1370279.6700       423838.1900       
GMMC19CC0081     1370288.8800       423838.1900       
GMMC19CC0081     1370288.8800       423723.2400       
GMMC19CC0081     1370279.6700       423723.2400       
GMMC19CC0082     1371438.7300       424511.5600       
GMMC19CC0082     1371534.2800       424511.5600       
GMMC19CC0082     1371534.2800       424478.1700       
GMMC19CC0082     1371438.7300       424478.1700       
GMMC19CC0083     1371534.2800       424135.9300       
GMMC19CC0083     1371569.9300       424135.9300       
GMMC19CC0083     1371569.9300       424082.6900       
GMMC19CC0083     1371534.2800       424082.6900       
GMMC19CC0084     1371355.2300       424156.3600       
GMMC19CC0084     1371438.7300       424156.3600       
GMMC19CC0084     1371438.7300       424135.9300       
GMMC19CC0084     1371355.2300       424135.9300       
GMMC19CC0085     1370954.2000       423911.8400       
GMMC19CC0085     1370971.2500       423911.8400       
GMMC19CC0085     1370971.2500       423838.1900       
GMMC19CC0085     1370954.2000       423838.1900       
GMMC19CC0086     1370971.2500       424082.6900       
GMMC19CC0086     1370993.6300       424082.6900       
GMMC19CC0086     1370993.6300       423995.0800       
GMMC19CC0086     1370971.2500       423995.0800       
GMMC19CC0087     1371025.5500       423303.1500       
GMMC19CC0087     1371030.0000       423303.1500       
GMMC19CC0087     1371030.0000       423226.4300       
GMMC19CC0087     1371025.5500       423226.4300       
GMMC19CC0088     1371056.7000       423611.1700       
GMMC19CC0088     1371063.9300       423611.1700       
GMMC19CC0088     1371063.9300       423542.8800       
GMMC19CC0088     1371056.7000       423542.8800       
GMMC19CC0089     1370506.6600       423950.4400       
GMMC19CC0089     1370516.4000       423950.4400       
GMMC19CC0089     1370516.4000       423929.2900       
GMMC19CC0089     1370506.6600       423929.2900       
GMMC19CC0090     1370873.9500       423723.2400       
GMMC19CC0090     1370902.7900       423723.2400       
GMMC19CC0090     1370902.7900       423652.5300       
GMMC19CC0090     1370873.9500       423652.5300       
GMMC19CC0091     1370487.1300       423652.5300       
GMMC19CC0091     1370506.6600       423652.5300       
GMMC19CC0091     1370506.6600       423611.1700       
GMMC19CC0091     1370487.1300       423611.1700       
GMMC19CC0092     1370656.6100       423542.8800       
GMMC19CC0092     1370720.6900       423542.8800       
GMMC19CC0092     1370720.6900       423389.7200       
GMMC19CC0092     1370656.6100       423389.7200       
GMMC19CC0093     1370516.4000       423389.7200       
GMMC19CC0093     1370524.1800       423389.7200       
GMMC19CC0093     1370524.1800       423303.1500       
GMMC19CC0093     1370516.4000       423303.1500       
GMMC19CC0094     1370207.1500       423226.4300       
GMMC19CC0094     1370230.0500       423226.4300       
GMMC19CC0094     1370230.0500       423156.1500       
GMMC19CC0094     1370207.1500       423156.1500       
GMMC19CC0095     1370448.3000       422990.5700       
GMMC19CC0095     1370475.3300       422990.5700       
GMMC19CC0095     1370475.3300       422978.9200       
GMMC19CC0095     1370448.3000       422978.9200       
GMMC19CC0096     1370475.3300       423156.1500       
GMMC19CC0096     1370487.1300       423156.1500       
GMMC19CC0096     1370487.1300       423119.2300       
GMMC19CC0096     1370475.3300       423119.2300       
GMMC19CC0097     1370417.3300       422978.9200       
GMMC19CC0097     1370448.3000       422978.9200       
GMMC19CC0097     1370448.3000       422840.2800       
GMMC19CC0097     1370417.3300       422840.2800       
GMMC19CC0098     1370118.1500       422840.2800       
GMMC19CC0098     1370207.1500       422840.2800       
GMMC19CC0098     1370207.1500       422732.9600       
GMMC19CC0098     1370118.1500       422732.9600       
GMMC19CC0099     1370524.1800       422721.0400       
GMMC19CC0099     1370534.8500       422721.0400       
GMMC19CC0099     1370534.8500       422565.1200       
GMMC19CC0099     1370524.1800       422565.1200       
GMMC19CC0100     1370326.3300       422732.9600       
GMMC19CC0100     1370381.3800       422732.9600       
GMMC19CC0100     1370381.3800       422721.0400       
GMMC19CC0100     1370326.3300       422721.0400       
GMMC19CC0101     1370254.8800       422353.6000       
GMMC19CC0101     1370279.6700       422353.6000       
GMMC19CC0101     1370279.6700       422173.6000       
GMMC19CC0101     1370254.8800       422173.6000       
GMMC19CC0102     1370288.8800       422565.1200       
GMMC19CC0102     1370296.9000       422565.1200       
GMMC19CC0102     1370296.9000       422353.6000       
GMMC19CC0102     1370288.8800       422353.6000       
GMMC19CC0103     1369384.2300       425268.3500       
GMMC19CC0103     1369571.0800       425268.3500       
GMMC19CC0103     1369571.0800       425251.8300       
GMMC19CC0103     1369384.2300       425251.8300       
GMMC19CC0104     1369571.0800       425251.8300       
GMMC19CC0104     1369783.6000       425251.8300       
GMMC19CC0104     1369783.6000       425233.5300       
GMMC19CC0104     1369571.0800       425233.5300       
GMMC19CC0105     1370023.1000       424856.4400       
GMMC19CC0105     1370034.3000       424856.4400       
GMMC19CC0105     1370034.3000       424817.1600       
GMMC19CC0105     1370023.1000       424817.1600       
GMMC19CC0106     1370034.3000       424965.2000       
GMMC19CC0106     1370050.8800       424965.2000       
GMMC19CC0106     1370050.8800       424906.3600       
GMMC19CC0106     1370034.3000       424906.3600       
GMMC19CC0107     1369783.6000       425233.5300       
GMMC19CC0107     1369928.6800       425233.5300       
GMMC19CC0107     1369928.6800       425226.6800       
GMMC19CC0107     1369783.6000       425226.6800       
GMMC19CC0108     1370050.8800       425217.5900       
GMMC19CC0108     1370118.1500       425217.5900       
GMMC19CC0108     1370118.1500       425210.1500       
GMMC19CC0108     1370050.8800       425210.1500       
GMMC19CC0109     1372227.2500       427310.1300       
GMMC19CC0109     1372259.3000       427310.1300       
GMMC19CC0109     1372259.3000       427271.4100       
GMMC19CC0109     1372227.2500       427271.4100       
GMMC19CC0110     1373045.3300       427238.4800       
GMMC19CC0110     1373123.4500       427238.4800       
GMMC19CC0110     1373123.4500       427165.9800       
GMMC19CC0110     1373045.3300       427165.9800       
GMMC19CC0111     1369225.2300       423119.2300       
GMMC19CC0111     1369384.2300       423119.2300       
GMMC19CC0111     1369384.2300       423043.5300       
GMMC19CC0111     1369225.2300       423043.5300       
GMMC19CC0112     1370230.0500       423043.5300       
GMMC19CC0112     1370236.9500       423043.5300       
GMMC19CC0112     1370236.9500       422990.5700       
GMMC19CC0112     1370230.0500       422990.5700       

[SYMBOLS]
;;Gage           X-Coord            Y-Coord           
;;-------------- ------------------ ------------------
GAGE1            0.0000             0.0000            
