[TITLE]
QA Phase 4 Stage C — METRIC (CMS) model exercising convert_internal_to_display
on the side-table: storage functional a/c, outfall FIXED stage, divider cutoff.

[OPTIONS]
FLOW_UNITS           CMS
FLOW_ROUTING         DYNWAVE
START_DATE           01/01/2020
START_TIME           00:00:00
END_DATE             01/01/2020
END_TIME             03:00:00
REPORT_STEP          00:05:00
WET_STEP             00:05:00
DRY_STEP             00:05:00
ROUTING_STEP         5
ALLOW_PONDING        NO

[JUNCTIONS]
;;Name   Elev   MaxDepth  InitDepth  SurDepth  Aponded
J1       20     6         0          0         0
J2       15     5         0          0         0

[STORAGE]
;;Name   Elev  MaxDepth  InitDepth  Shape       A1     A2   A0    SurDepth  Fevap  Seep
STOR1    10    12        2          FUNCTIONAL  1000   0    500   0         0.5    0.3

[DIVIDERS]
;;Name   Elev  DivLink  Type     Cutoff  MaxDepth
DIV1     12    C_OUT    CUTOFF   1.5      4

[OUTFALLS]
;;Name   Elev   Type    Stage   Gated
OUT1     5      FIXED   7.5     NO

[CONDUITS]
;;Name   FromNode  ToNode  Length  Roughness  InOffset  OutOffset  InitFlow  MaxFlow
C_IN     J1        STOR1   200     0.013      0         0          0         0
C_MID    STOR1     DIV1    150     0.013      0         0          0         0
C_DIV    DIV1      J2      120     0.013      0         0          0         0
C_OUT    DIV1      OUT1    120     0.013      0         0          0         0

[XSECTIONS]
;;Link   Shape     Geom1  Geom2  Geom3  Geom4  Barrels
C_IN     CIRCULAR  3.0    0      0      0      1
C_MID    CIRCULAR  3.0    0      0      0      1
C_DIV    CIRCULAR  2.0    0      0      0      1
C_OUT    CIRCULAR  2.0    0      0      0      1

[INFLOWS]
;;Node  Constituent  TimeSeries  Type   Mfactor  Sfactor  Baseline  Pattern
J1      FLOW         TS_IN       FLOW   1.0      1.0

[TIMESERIES]
;;Name   Date  Time   Value
TS_IN          0:00   5.0
TS_IN          1:00   5.0
TS_IN          1:05   0.0
TS_IN          3:00   0.0

[REPORT]
INPUT     NO
NODES     ALL
LINKS     ALL
