
[TITLE]
;;Project Title/Notes
QA Phase 2b — CUTOFF divider (DividerData side-table parity).

[OPTIONS]
;;Option               Value
FLOW_UNITS           CFS
INFILTRATION         HORTON
FLOW_ROUTING         KINWAVE
LINK_OFFSETS         DEPTH
MIN_SLOPE            0
ALLOW_PONDING        NO
SKIP_STEADY_STATE    NO

IGNORE_RAINFALL      NO
IGNORE_SNOWMELT      NO
IGNORE_GROUNDWATER   NO
IGNORE_RDII          NO
IGNORE_ROUTING       NO
IGNORE_QUALITY       NO

START_DATE           01/01/2020
START_TIME           00:00:00
REPORT_START_DATE    01/01/2020
REPORT_START_TIME    00:00:00
END_DATE             01/01/2020
END_TIME             01:00:00
SWEEP_START          1/1
SWEEP_END            12/31
DRY_DAYS             0
REPORT_STEP          0:05:00
WET_STEP             0:05:00
DRY_STEP             0:05:00
ROUTING_STEP         0:00:05
RULE_STEP            0:00:00

INERTIAL_DAMPING     PARTIAL
NORMAL_FLOW_LIMITED  BOTH
FORCE_MAIN_EQUATION  H-W
SURCHARGE_METHOD     EXTRAN
VARIABLE_STEP        0.75
LENGTHENING_STEP     0
MIN_SURFAREA         0
MAX_TRIALS           8
HEAD_TOLERANCE       0.005
SYS_FLOW_TOL         5
LAT_FLOW_TOL         5
MINIMUM_STEP         0.5
THREADS              1

[EVAPORATION]
;;Type       Parameters
;;---------- ----------
CONSTANT     0.0000
DRY_ONLY     NO

[OUTFALLS]
;;Name             Elev         Type         Gated   
;;---------------- ------------ ------------ --------
OUT_DIV               80.0000 FREE         NO
OUT_MAIN              80.0000 FREE         NO

[DIVIDERS]
;;Name             Elev         DivLink          Type        
;;---------------- ------------ ---------------- ------------
DIV1                  90.0000 C_DIV            CUTOFF         2.0000       4.0000       0.0000       0.0000       0.0000

[CONDUITS]
;;Name             FromNode         ToNode           Length       Roughness    InOffset     OutOffset    InitFlow   MaxFlow   
;;---------------- ---------------- ---------------- ------------ ------------ ------------ ------------ ---------- ----------
C_DIV            DIV1             OUT_DIV              100.0000     0.013000       0.0000       0.0000     0.0000     0.0000
C_MAIN           DIV1             OUT_MAIN             100.0000     0.013000       0.0000       0.0000     0.0000     0.0000

[XSECTIONS]
;;Link             Shape            Geom1        Geom2        Geom3        Geom4        Barrels 
;;---------------- ---------------- ------------ ------------ ------------ ------------ --------
C_DIV            CIRCULAR               2.0000       0.0000       0.0000       0.0000        1
C_MAIN           CIRCULAR               2.0000       0.0000       0.0000       0.0000        1

[REPORT]
;;Keyword          Value
DISABLED             NO
INPUT                NO
CONTINUITY           YES
FLOWSTATS            YES
CONTROLS             NO
AVERAGES             NO
SUBCATCHMENTS        ALL
NODES                ALL
LINKS                ALL

[INFLOWS]
;;Node             Constituent      TimeSeries       Type             Mfactor    Sfactor    Baseline   Pattern         
;;---------------- ---------------- ---------------- ---------------- ---------- ---------- ---------- ----------------
DIV1             FLOW             TS_IN            FLOW                 1.0000     1.0000     0.0000                 

[TIMESERIES]
;;Name             Date/Time            Value       
;;---------------- -------------------- ------------
TS_IN            0:00     5.000000
TS_IN            0:60     5.000000

[MAP]
DIMENSIONS 0.0000             0.0000             0.0000             0.0000            
Units      None

[COORDINATES]
;;Node           X-Coord            Y-Coord           
;;-------------- ------------------ ------------------
DIV1             0.0000             0.0000            
OUT_DIV          0.0000             0.0000            
OUT_MAIN         0.0000             0.0000            
